C  N  Au Ag Pd                          
   1.00000000000000     
    14.2152995630071182    0.0000000000000000    0.0000000000000000
     0.0000000000000000   12.3070678989438527    0.0000000000000000
     0.0000000000000000    0.0000000000000000   15.0000000000000000
   C    N    Au   Ag   Pd
    24    32     1     1     1
Direct
  0.0659327919233622  0.4038857950468735  0.1333815567982258
  0.9808968426509136  0.2347099536348926  0.1337722681771449
  0.2264023446392748  0.3983714754371837  0.1301923514312288
  0.8168021511182679  0.5775496454790882  0.1252589557297743
  0.1507483720191670  0.2348499459541616  0.1334615999292343
  0.9053876252120684  0.3983543076631388  0.1311601507411050
  0.5657164473295920  0.4037015460639914  0.1264048687260773
  0.4810608557709967  0.2350396999379630  0.1332980293887603
  0.7266951365436493  0.3981007467013835  0.1275983592150145
  0.3143008791092012  0.5765068133791921  0.1280644963872322
  0.6502088071274581  0.2345760651827436  0.1314214226571250
  0.4043176805929474  0.3981805959153116  0.1301932940085449
  0.8150621117024459  0.9040069306004254  0.1338484220552643
  0.7319901294567546  0.7355463210909547  0.1171477814764642
  0.9757039325531194  0.8991428500247780  0.1343404346513920
  0.0658003425779288  0.0782856187852578  0.1331329654684108
  0.9007344999219913  0.7355159663020919  0.1336353823035030
  0.6550284313940924  0.8968125452655934  0.1240846058790570
  0.3163104663752039  0.9039530831712430  0.1330187158366340
  0.2306772066141650  0.7349262512672492  0.1344275705233397
  0.4768569007613698  0.8967742916555976  0.1254635875084329
  0.5657940126118491  0.0763365561820281  0.1315186738319194
  0.3996513551739732  0.7349696056972908  0.1221094633862518
  0.1558045293552660  0.8988624899105716  0.1333427198361681
  0.9839968552387943  0.4562931353479915  0.1324109855383653
  0.9004741451911931  0.2903868745214594  0.1324071096843273
  0.1472327173778962  0.4560860847931792  0.1315292271226303
  0.1484797875394611  0.1276652632276317  0.1333604670383093
  0.9828758789754949  0.1276454871765756  0.1330140367366693
  0.2309740656286466  0.2899418009421844  0.1312125600514134
  0.0656428043612647  0.2915351477165728  0.1345975324976179
  0.8155573294578662  0.4584026209021630  0.1268869217826750
  0.4847854429470293  0.4572218196953127  0.1264554049837435
  0.4022804690997487  0.2911207495927699  0.1382603084707017
  0.6473099657470088  0.4569859724184391  0.1267988193142841
  0.6491205103828648  0.1266184583104978  0.1346191944987858
  0.4830122480034306  0.1261596422314039  0.1333023893878391
  0.7297123912971636  0.2911132242795056  0.1323763161877910
  0.5657390586672217  0.2912516595050408  0.1269364459135681
  0.3150374385769136  0.4576618826947177  0.1257969348100152
  0.7323095644114890  0.9545664302449245  0.1371706174809713
  0.6522430157264244  0.7899841497353586  0.1083739464324942
  0.8962801539309476  0.9576177938286323  0.1356099679204756
  0.8987190584994084  0.6269239161444689  0.1353602178273405
  0.7341065119649809  0.6266874427138758  0.1137264477082772
  0.9802718993084634  0.7909100567306107  0.1362396371575853
  0.8159681739458023  0.7914073260199149  0.1301210652679257
  0.5659649107535940  0.9558983691181021  0.1261980363303285
  0.2348583040159272  0.9569947529991902  0.1355049106751750
  0.1511440522882825  0.7918207980352215  0.1336313548130727
  0.3988315005388058  0.9545471032321950  0.1340460444664459
  0.3979643747088646  0.6265896308639758  0.1190068180117178
  0.2327796435848103  0.6276641127013701  0.1384176210220968
  0.4797890426020099  0.7886495692831720  0.1168268826468224
  0.3157588186790352  0.7908396159254540  0.1300180234051731
  0.0657200555939760  0.9590179541107822  0.1321792332958208
  0.5661246084916381  0.7442795327467543  0.3014674509569549
  0.6601162857033482  0.5664072641110174  0.2741324126301187
  0.4748386595328568  0.5663383338470418  0.2476069819862046
 
  0.00000000E+00  0.00000000E+00  0.00000000E+00
  0.00000000E+00  0.00000000E+00  0.00000000E+00
  0.00000000E+00  0.00000000E+00  0.00000000E+00
  0.00000000E+00  0.00000000E+00  0.00000000E+00
  0.00000000E+00  0.00000000E+00  0.00000000E+00
  0.00000000E+00  0.00000000E+00  0.00000000E+00
  0.00000000E+00  0.00000000E+00  0.00000000E+00
  0.00000000E+00  0.00000000E+00  0.00000000E+00
  0.00000000E+00  0.00000000E+00  0.00000000E+00
  0.00000000E+00  0.00000000E+00  0.00000000E+00
  0.00000000E+00  0.00000000E+00  0.00000000E+00
  0.00000000E+00  0.00000000E+00  0.00000000E+00
  0.00000000E+00  0.00000000E+00  0.00000000E+00
  0.00000000E+00  0.00000000E+00  0.00000000E+00
  0.00000000E+00  0.00000000E+00  0.00000000E+00
  0.00000000E+00  0.00000000E+00  0.00000000E+00
  0.00000000E+00  0.00000000E+00  0.00000000E+00
  0.00000000E+00  0.00000000E+00  0.00000000E+00
  0.00000000E+00  0.00000000E+00  0.00000000E+00
  0.00000000E+00  0.00000000E+00  0.00000000E+00
  0.00000000E+00  0.00000000E+00  0.00000000E+00
  0.00000000E+00  0.00000000E+00  0.00000000E+00
  0.00000000E+00  0.00000000E+00  0.00000000E+00
  0.00000000E+00  0.00000000E+00  0.00000000E+00
  0.00000000E+00  0.00000000E+00  0.00000000E+00
  0.00000000E+00  0.00000000E+00  0.00000000E+00
  0.00000000E+00  0.00000000E+00  0.00000000E+00
  0.00000000E+00  0.00000000E+00  0.00000000E+00
  0.00000000E+00  0.00000000E+00  0.00000000E+00
  0.00000000E+00  0.00000000E+00  0.00000000E+00
  0.00000000E+00  0.00000000E+00  0.00000000E+00
  0.00000000E+00  0.00000000E+00  0.00000000E+00
  0.00000000E+00  0.00000000E+00  0.00000000E+00
  0.00000000E+00  0.00000000E+00  0.00000000E+00
  0.00000000E+00  0.00000000E+00  0.00000000E+00
  0.00000000E+00  0.00000000E+00  0.00000000E+00
  0.00000000E+00  0.00000000E+00  0.00000000E+00
  0.00000000E+00  0.00000000E+00  0.00000000E+00
  0.00000000E+00  0.00000000E+00  0.00000000E+00
  0.00000000E+00  0.00000000E+00  0.00000000E+00
  0.00000000E+00  0.00000000E+00  0.00000000E+00
  0.00000000E+00  0.00000000E+00  0.00000000E+00
  0.00000000E+00  0.00000000E+00  0.00000000E+00
  0.00000000E+00  0.00000000E+00  0.00000000E+00
  0.00000000E+00  0.00000000E+00  0.00000000E+00
  0.00000000E+00  0.00000000E+00  0.00000000E+00
  0.00000000E+00  0.00000000E+00  0.00000000E+00
  0.00000000E+00  0.00000000E+00  0.00000000E+00
  0.00000000E+00  0.00000000E+00  0.00000000E+00
  0.00000000E+00  0.00000000E+00  0.00000000E+00
  0.00000000E+00  0.00000000E+00  0.00000000E+00
  0.00000000E+00  0.00000000E+00  0.00000000E+00
  0.00000000E+00  0.00000000E+00  0.00000000E+00
  0.00000000E+00  0.00000000E+00  0.00000000E+00
  0.00000000E+00  0.00000000E+00  0.00000000E+00
  0.00000000E+00  0.00000000E+00  0.00000000E+00
  0.00000000E+00  0.00000000E+00  0.00000000E+00
  0.00000000E+00  0.00000000E+00  0.00000000E+00
  0.00000000E+00  0.00000000E+00  0.00000000E+00
