C  N  Au                                
   1.00000000000000     
    14.1770743794326783    0.0000000000000000    0.0000000000000000
     0.0000000000000000   12.2674918095229053    0.0000000000000000
     0.0000000000000000    0.0000000000000000   15.0000000000000000
   C    N    Au
    24    32     1
Direct
  0.0658167505327649  0.4053711790861068  0.1331623251353173
  0.9813740399499714  0.2354318560294632  0.1322501369863781
  0.2253558382825573  0.3983599294710218  0.1314447106489034
  0.8204910590350525  0.5759959369304749  0.1349984717902618
  0.1500770670026021  0.2352311711262074  0.1318605906045148
  0.9063120446327292  0.3988184403681898  0.1316424830969977
  0.5657863511280364  0.4000862657070097  0.1233764157193485
  0.4793965613294008  0.2329314602887202  0.1326392705237740
  0.7282855210881279  0.3970322294592144  0.1341671181794028
  0.3105451106815285  0.5760410954818004  0.1346341496644962
  0.6518043500611536  0.2328683411628173  0.1328820545461148
  0.4032507938498697  0.3975860741575803  0.1343221627534356
  0.8152963538458712  0.9053861598895873  0.1336505110299885
  0.7350979587706513  0.7345153177433207  0.1249929162003961
  0.9759646568412383  0.9015195684828543  0.1358187766377942
  0.9028784275496414  0.7358186774005911  0.1312583687149224
  0.6537022843968125  0.8965938685641712  0.1343726059711600
  0.3150769511968757  0.9050972558137174  0.1339723834671253
  0.2276100421552380  0.7353649777502582  0.1317840270127621
  0.4762617242293729  0.8965651040808396  0.1337909070974719
  0.3953725638150664  0.7345352564910309  0.1223712512904881
  0.1544429814511977  0.9009746171048988  0.1363049985751218
  0.0657174539459727  0.0772819224919861  0.1299360809225154
  0.5653597791013272  0.0758034838863524  0.1347337762822294
  0.9846807564683104  0.4583170611434337  0.1297482461496525
  0.9013811575266812  0.2909056276888362  0.1280550672160619
  0.1470517959918231  0.4579330620300803  0.1288983779783489
  0.1486912776056069  0.1275671051223701  0.1265113520678171
  0.9828466365626142  0.1277947479000864  0.1278389523787609
  0.2302394345545174  0.2904321039189742  0.1281851616060342
  0.0657767113028424  0.2921768334832984  0.1400311225926998
  0.8175254057013840  0.4579290166324924  0.1343532385851277
  0.4846442299376734  0.4545905986411171  0.1281549766884835
  0.4002205289021734  0.2895301510261241  0.1431141988508450
  0.6471839570962623  0.4539152697603203  0.1271157379455405
  0.6492732935303943  0.1254748554586309  0.1378502186481789
  0.4814989066901765  0.1256307106794760  0.1374134232090670
  0.7311847441070430  0.2891171431602577  0.1435610506100524
  0.5655767008536196  0.2888065450884602  0.1172492406187493
  0.3139696786035958  0.4579101922028619  0.1342628177879653
  0.7325216654810367  0.9541208620580061  0.1425462546140287
  0.6527445057038094  0.7865233138535865  0.1305065718594530
  0.8957288099763502  0.9586763785824436  0.1430110928180627
  0.9025564205808962  0.6283953787385195  0.1415322457902511
  0.7369329895890884  0.6269815272054249  0.1318701334309473
  0.9809961839787318  0.7933418866507066  0.1363679127196303
  0.8175525280744668  0.7919378420576395  0.1157172275297655
  0.5651069180497136  0.9553892525297680  0.1331382408812954
  0.2346020404971644  0.9580531778034063  0.1437045078253614
  0.1495179223912747  0.7927507430753036  0.1378945378527137
  0.3976252973570801  0.9539491079557108  0.1444973549186072
  0.3939510870797336  0.6269026063363722  0.1290460912594047
  0.2283629214799559  0.6280641390404103  0.1432678956571305
  0.4775275449675092  0.7870810831728602  0.1267017380459928
  0.3126451647651151  0.7917310794692837  0.1142192996877254
  0.0653760490443506  0.9598446782329767  0.1330226914335807
  0.5653865136694178  0.6245183117381039  0.1764565278917836
 
  0.00000000E+00  0.00000000E+00  0.00000000E+00
  0.00000000E+00  0.00000000E+00  0.00000000E+00
  0.00000000E+00  0.00000000E+00  0.00000000E+00
  0.00000000E+00  0.00000000E+00  0.00000000E+00
  0.00000000E+00  0.00000000E+00  0.00000000E+00
  0.00000000E+00  0.00000000E+00  0.00000000E+00
  0.00000000E+00  0.00000000E+00  0.00000000E+00
  0.00000000E+00  0.00000000E+00  0.00000000E+00
  0.00000000E+00  0.00000000E+00  0.00000000E+00
  0.00000000E+00  0.00000000E+00  0.00000000E+00
  0.00000000E+00  0.00000000E+00  0.00000000E+00
  0.00000000E+00  0.00000000E+00  0.00000000E+00
  0.00000000E+00  0.00000000E+00  0.00000000E+00
  0.00000000E+00  0.00000000E+00  0.00000000E+00
  0.00000000E+00  0.00000000E+00  0.00000000E+00
  0.00000000E+00  0.00000000E+00  0.00000000E+00
  0.00000000E+00  0.00000000E+00  0.00000000E+00
  0.00000000E+00  0.00000000E+00  0.00000000E+00
  0.00000000E+00  0.00000000E+00  0.00000000E+00
  0.00000000E+00  0.00000000E+00  0.00000000E+00
  0.00000000E+00  0.00000000E+00  0.00000000E+00
  0.00000000E+00  0.00000000E+00  0.00000000E+00
  0.00000000E+00  0.00000000E+00  0.00000000E+00
  0.00000000E+00  0.00000000E+00  0.00000000E+00
  0.00000000E+00  0.00000000E+00  0.00000000E+00
  0.00000000E+00  0.00000000E+00  0.00000000E+00
  0.00000000E+00  0.00000000E+00  0.00000000E+00
  0.00000000E+00  0.00000000E+00  0.00000000E+00
  0.00000000E+00  0.00000000E+00  0.00000000E+00
  0.00000000E+00  0.00000000E+00  0.00000000E+00
  0.00000000E+00  0.00000000E+00  0.00000000E+00
  0.00000000E+00  0.00000000E+00  0.00000000E+00
  0.00000000E+00  0.00000000E+00  0.00000000E+00
  0.00000000E+00  0.00000000E+00  0.00000000E+00
  0.00000000E+00  0.00000000E+00  0.00000000E+00
  0.00000000E+00  0.00000000E+00  0.00000000E+00
  0.00000000E+00  0.00000000E+00  0.00000000E+00
  0.00000000E+00  0.00000000E+00  0.00000000E+00
  0.00000000E+00  0.00000000E+00  0.00000000E+00
  0.00000000E+00  0.00000000E+00  0.00000000E+00
  0.00000000E+00  0.00000000E+00  0.00000000E+00
  0.00000000E+00  0.00000000E+00  0.00000000E+00
  0.00000000E+00  0.00000000E+00  0.00000000E+00
  0.00000000E+00  0.00000000E+00  0.00000000E+00
  0.00000000E+00  0.00000000E+00  0.00000000E+00
  0.00000000E+00  0.00000000E+00  0.00000000E+00
  0.00000000E+00  0.00000000E+00  0.00000000E+00
  0.00000000E+00  0.00000000E+00  0.00000000E+00
  0.00000000E+00  0.00000000E+00  0.00000000E+00
  0.00000000E+00  0.00000000E+00  0.00000000E+00
  0.00000000E+00  0.00000000E+00  0.00000000E+00
  0.00000000E+00  0.00000000E+00  0.00000000E+00
  0.00000000E+00  0.00000000E+00  0.00000000E+00
  0.00000000E+00  0.00000000E+00  0.00000000E+00
  0.00000000E+00  0.00000000E+00  0.00000000E+00
  0.00000000E+00  0.00000000E+00  0.00000000E+00
  0.00000000E+00  0.00000000E+00  0.00000000E+00
