C  N  Cu Ni
 1.0000000000000000
    14.2659000000000002    0.0000000000000000    0.0000000000000000
     0.0000000000000000   12.3569965042995946    0.0000000000000000
     0.0000000000000000    0.0000000000000000   15.0000000000000000
 C   N   Cu  Ni 
  24  32   1   1
Cartesian
  0.9326464856000000  4.9877780690000000  1.9999499999999999
 -0.2713734012000000  2.9031527587000001  1.9999499999999999
  3.2231571000999999  4.9205560080000001  1.9999499999999999
 11.6329248697000001  7.1312226825999998  1.9999499999999999
  2.1361397189000000  2.9026584788999998  1.9999499999999999
 12.9131974031999999  4.9177138987999998  1.9999499999999999
  8.0655964856000004  4.9877780690000000  1.9999499999999999
  6.8615765988000001  2.9031527587000001  1.9999499999999999
 10.3561071000999991  4.9205560080000001  1.9999499999999999
  4.4999748696999999  7.1312226825999998  1.9999499999999999
  9.2690897189000001  2.9026584788999998  1.9999499999999999
  5.7802474031999997  4.9177138987999998  1.9999499999999999
 11.6341201571999999 11.1662763210999998  1.9999499999999999
 10.4301002704000005  9.0816510108999999  1.9999499999999999
 -0.3412692284000000 11.0990542602000009  1.9999499999999999
  0.9314511982000000  0.9527244305000000  1.9999499999999999
 12.8376133904999996  9.0811567310000001  1.9999499999999999
  9.3487710748000001 11.0962121509999996  1.9999499999999999
  4.5011701571999998 11.1662763210999998  1.9999499999999999
  3.2971502704000000  9.0816510108999999  1.9999499999999999
  6.7916807716000003 11.0990542602000009  1.9999499999999999
  8.0644011982000006  0.9527244305000000  1.9999499999999999
  5.7046633905000004  9.0811567310000001  1.9999499999999999
  2.2158210748000000 11.0962121509999996  1.9999499999999999
 -0.2282410702000000  5.6333075664000001  1.9999499999999999
 12.8552642964999997  3.5861239555000002  1.9999499999999999
  2.0985988360999999  5.6341725561000002  1.9999499999999999
  2.1171525191999998  1.5710685356000000  1.9999499999999999
 -0.2487759531000000  1.5702035458000001  1.9999499999999999
  3.2800630132999999  3.5845175459999998  1.9999499999999999
  0.9324709344000000  3.5978631021999998  1.9999499999999999
 11.6342903779000011  5.6562915799000004  1.9999499999999999
  6.9047089298000000  5.6333075664000001  1.9999499999999999
  5.7223142964999996  3.5861239555000002  1.9999499999999999
  9.2315488361000000  5.6341725561000002  1.9999499999999999
  9.2501025192000004  1.5710685356000000  1.9999499999999999
  6.8841740469000001  1.5702035458000001  1.9999499999999999
 10.4130130133000005  3.5845175459999998  1.9999499999999999
  8.0654209344000005  3.5978631021999998  1.9999499999999999
  4.5013403779000001  5.6562915799000004  1.9999499999999999
 10.4732326013999995 11.8118058184999999  1.9999499999999999
  9.2908379679999999  9.7646222077000004  1.9999499999999999
 12.8000725076999995 11.8126708083000000  1.9999499999999999
 12.8186261907999999  7.7495667877000001  1.9999499999999999
 10.4526977184999996  7.7487017979999999  1.9999499999999999
 -0.2843633151000000  9.7630157980999996  1.9999499999999999
 11.6339446060000000  9.7763613543000005  1.9999499999999999
  8.0698640495000014 11.8347898320000002  1.9999499999999999
  3.3402826014000002 11.8118058184999999  1.9999499999999999
  2.1578879679999998  9.7646222077000004  1.9999499999999999
  5.6671225077000003 11.8126708083000000  1.9999499999999999
  5.6856761907999998  7.7495667877000001  1.9999499999999999
  3.3197477184999999  7.7487017979999999  1.9999499999999999
  6.8485866848999999  9.7630157980999996  1.9999499999999999
  4.5009946059999999  9.7763613543000005  1.9999499999999999
  0.9369140495000000 11.8347898320000002  1.9999499999999999
  7.3209773019676785  8.1260232915965318  2.1499562465917661
  9.0586778222323261  7.2679720724034746  2.0927937534082335
