C  N  Ag Pd                             
   1.00000000000000     
    13.6897695823316159    0.0000000000000000    0.0000000000000000
     0.0000000000000000   10.8177587398613646    0.0000000000000000
     0.0000000000000000    0.0000000000000000   15.0000000000000000
   C    N    Ag   Pd
    24    32     2     1
Direct
  0.0710992743071008  0.3877794633550072  0.2311705287558798
  0.9809265121224523  0.2184879351901220  0.1675984667812601
  0.2307084699268790  0.3939952877322777  0.2021122593781743
  0.8172165818103292  0.5803564228588540  0.1889432227282473
  0.1501849513302637  0.2498034960483044  0.1249574207754825
  0.9072923770690067  0.3868098510880337  0.2252897353285525
  0.5724459541972051  0.3849615731651805  0.2342328174861824
  0.4800504430520974  0.2176050186760325  0.1720786893029805
  0.7306954343664377  0.3938679233756431  0.2021132353728426
  0.3157139967219544  0.5806476259780027  0.1884713266244976
  0.6476793090275481  0.2536375724817883  0.1231143455302628
  0.4071026029437939  0.3876777162635589  0.2286412900798627
  0.8179475155054544  0.8878047728736956  0.0431763070307128
  0.7280910510606043  0.7194870987584777  0.1085740491004587
  0.9773838716701314  0.8955155691477067  0.0728483847045518
  0.0683637982161846  0.0785741910967085  0.0865923825468732
  0.8968137282387481  0.7534097431413718  0.1516901559464365
  0.6539412989863400  0.8867660723518704  0.0494308787881936
  0.3176430321116456  0.8870318100448185  0.0394476515706913
  0.2280439144535222  0.7172137722152150  0.1041905010473744
  0.4764578779773590  0.8978588639753704  0.0720112200898965
  0.5659190279591902  0.0814572315846904  0.0867131231815964
  0.3943856004265501  0.7570196172888932  0.1506295322062185
  0.1537943023679487  0.8840747747003430  0.0455309098851743
  0.9881720780009542  0.4418667185144909  0.2552782225082998
  0.8995394189795868  0.2678314250064862  0.1998003759351104
  0.1590599533273497  0.4276492205516105  0.2568628819752219
  0.1484215944051557  0.1471892864148973  0.0762268452356334
  0.9851489268702760  0.1076813014546379  0.1289360815293099
  0.2306737970337224  0.3184147630927513  0.1325625357524079
  0.0674923303816219  0.2870568391304201  0.1724773962071931
  0.8212181601974798  0.4566540485817978  0.2185766678799569
  0.4895676726357240  0.4433128557109866  0.2568301799936754
  0.3999768594797382  0.2673495035575484  0.2070674542090846
  0.6606962985957088  0.4228533486829444  0.2598817903769976
  0.6438432285326474  0.1523578275333313  0.0729451747965200
  0.4834204134172034  0.1082401003913618  0.1315556830526667
  0.7270595779558120  0.3240224932404573  0.1287962187492027
  0.5667480501798973  0.2858548929610670  0.1755117371860062
  0.3211741319238084  0.4578747197944418  0.2189242897761388
  0.7347689187239483  0.9411626900495065  0.0186214553184675
  0.6464156729347219  0.7682490448461988  0.0761845750651743
  0.9060833223860364  0.9269746924551839  0.0170056936144317
  0.8958181464831091  0.6512272144746660  0.2007575812341887
  0.7332493783011462  0.6087535476311794  0.1474585190409345
  0.9769153806267342  0.8228613232666865  0.1439961331726302
  0.8144098645123007  0.7885242947917239  0.1030388812004640
  0.5680529619141983  0.9582159095231814  0.0554743106209398
  0.2343639527703874  0.9382622888145914  0.0136170805982418
  0.1465263312410083  0.7652506646208860  0.0717029317424540
  0.4059312856715210  0.9282122723811753  0.0152253867198743
  0.3914857756580337  0.6570326754993125  0.2038623420527290
  0.2345467215120657  0.6063624503668112  0.1428324827351065
  0.4743674668387571  0.8254117083836314  0.1437278253614956
  0.3137963793889059  0.7877103266192991  0.0997581862108653
  0.0690299748236013  0.9559248659911257  0.0547299388484644
  0.5547147146641781  0.8445462689044410  0.3721779898876055
  0.6473943944772038  0.6361792585726297  0.4203463463751230
  0.5071768191810798  0.6301751454915964  0.3008680122816387
 
  0.00000000E+00  0.00000000E+00  0.00000000E+00
  0.00000000E+00  0.00000000E+00  0.00000000E+00
  0.00000000E+00  0.00000000E+00  0.00000000E+00
  0.00000000E+00  0.00000000E+00  0.00000000E+00
  0.00000000E+00  0.00000000E+00  0.00000000E+00
  0.00000000E+00  0.00000000E+00  0.00000000E+00
  0.00000000E+00  0.00000000E+00  0.00000000E+00
  0.00000000E+00  0.00000000E+00  0.00000000E+00
  0.00000000E+00  0.00000000E+00  0.00000000E+00
  0.00000000E+00  0.00000000E+00  0.00000000E+00
  0.00000000E+00  0.00000000E+00  0.00000000E+00
  0.00000000E+00  0.00000000E+00  0.00000000E+00
  0.00000000E+00  0.00000000E+00  0.00000000E+00
  0.00000000E+00  0.00000000E+00  0.00000000E+00
  0.00000000E+00  0.00000000E+00  0.00000000E+00
  0.00000000E+00  0.00000000E+00  0.00000000E+00
  0.00000000E+00  0.00000000E+00  0.00000000E+00
  0.00000000E+00  0.00000000E+00  0.00000000E+00
  0.00000000E+00  0.00000000E+00  0.00000000E+00
  0.00000000E+00  0.00000000E+00  0.00000000E+00
  0.00000000E+00  0.00000000E+00  0.00000000E+00
  0.00000000E+00  0.00000000E+00  0.00000000E+00
  0.00000000E+00  0.00000000E+00  0.00000000E+00
  0.00000000E+00  0.00000000E+00  0.00000000E+00
  0.00000000E+00  0.00000000E+00  0.00000000E+00
  0.00000000E+00  0.00000000E+00  0.00000000E+00
  0.00000000E+00  0.00000000E+00  0.00000000E+00
  0.00000000E+00  0.00000000E+00  0.00000000E+00
  0.00000000E+00  0.00000000E+00  0.00000000E+00
  0.00000000E+00  0.00000000E+00  0.00000000E+00
  0.00000000E+00  0.00000000E+00  0.00000000E+00
  0.00000000E+00  0.00000000E+00  0.00000000E+00
  0.00000000E+00  0.00000000E+00  0.00000000E+00
  0.00000000E+00  0.00000000E+00  0.00000000E+00
  0.00000000E+00  0.00000000E+00  0.00000000E+00
  0.00000000E+00  0.00000000E+00  0.00000000E+00
  0.00000000E+00  0.00000000E+00  0.00000000E+00
  0.00000000E+00  0.00000000E+00  0.00000000E+00
  0.00000000E+00  0.00000000E+00  0.00000000E+00
  0.00000000E+00  0.00000000E+00  0.00000000E+00
  0.00000000E+00  0.00000000E+00  0.00000000E+00
  0.00000000E+00  0.00000000E+00  0.00000000E+00
  0.00000000E+00  0.00000000E+00  0.00000000E+00
  0.00000000E+00  0.00000000E+00  0.00000000E+00
  0.00000000E+00  0.00000000E+00  0.00000000E+00
  0.00000000E+00  0.00000000E+00  0.00000000E+00
  0.00000000E+00  0.00000000E+00  0.00000000E+00
  0.00000000E+00  0.00000000E+00  0.00000000E+00
  0.00000000E+00  0.00000000E+00  0.00000000E+00
  0.00000000E+00  0.00000000E+00  0.00000000E+00
  0.00000000E+00  0.00000000E+00  0.00000000E+00
  0.00000000E+00  0.00000000E+00  0.00000000E+00
  0.00000000E+00  0.00000000E+00  0.00000000E+00
  0.00000000E+00  0.00000000E+00  0.00000000E+00
  0.00000000E+00  0.00000000E+00  0.00000000E+00
  0.00000000E+00  0.00000000E+00  0.00000000E+00
  0.00000000E+00  0.00000000E+00  0.00000000E+00
  0.00000000E+00  0.00000000E+00  0.00000000E+00
  0.00000000E+00  0.00000000E+00  0.00000000E+00
