C  N  Au                                
   1.00000000000000     
    13.7359516737475786    0.0000000000000000    0.0000000000000000
     0.0000000000000000   11.3542789793490080    0.0000000000000000
     0.0000000000000000    0.0000000000000000   15.0000000000000000
   C    N    Au
    24    32     1
Direct
  0.0773470949177468  0.4059734015336708  0.0516619509939614
  0.9873743209076070  0.2223895227835755  0.0643501563549542
  0.2392189137733045  0.3993766946127940  0.0755121690980566
  0.8174869802330607  0.5749260610794222  0.0889180380877363
  0.1629530395857474  0.2243986517199279  0.0862095856618951
  0.9132779741370427  0.3967786035270013  0.0461917883275354
  0.5746480498671239  0.3957359219725912  0.0816554274502662
  0.4889052323706717  0.2447769919674876  0.1656909433146764
  0.7374219780818949  0.3856396456007513  0.0771165504817203
  0.3058200134091990  0.5897890760774568  0.1160048945541501
  0.6620596284054237  0.2255079559169564  0.1345896629290938
  0.4117783580167662  0.4117617577372892  0.1186298910904936
  0.8123506852693657  0.8904710129721500  0.2096506083855557
  0.7315798503273092  0.7137225650504111  0.1650288046847203
  0.9680686681461987  0.9051197186826326  0.1653588611382477
  0.8894300997398805  0.7519301741693357  0.1039500804173517
  0.6457361606859632  0.8785243097769355  0.2119156755692014
  0.3035982629998808  0.9110125459764518  0.2186724103716616
  0.2164995073259163  0.7325731898178479  0.1814960024056478
  0.4651379206609639  0.9077395803767637  0.1915710248446411
  0.3772520370233884  0.7682631097505861  0.1217543680648745
  0.1411389693731134  0.9035247215291913  0.2060299872055891
  0.0699954047620698  0.0689153797563512  0.1234216666398374
  0.5726615089681796  0.0760171721694166  0.1924421866879741
  0.9929941090169218  0.4626801644977914  0.0445365428745302
  0.9075156833024299  0.2792047523125096  0.0385752136601668
  0.1618409209072749  0.4623731013008512  0.0494550824314111
  0.1592407618177344  0.1119231328232351  0.1110946655263631
  0.9855370993863625  0.1106112681411563  0.0915394970005822
  0.2465892579746029  0.2825981963893311  0.0826392059142671
  0.0754919198572477  0.2850648703647464  0.0710497467107441
  0.8235212026865890  0.4544498484064852  0.0632944712781030
  0.4943198686073729  0.4641313377881803  0.0846462222689857
  0.4093268898291507  0.3127376219233732  0.1645804878283194
  0.6563363646403323  0.4376920837653564  0.0466855551682609
  0.6589961413520736  0.1156605581617397  0.1636789585933161
  0.4917630710431781  0.1404073026809366  0.2042928677035093
  0.7445083020561329  0.2852628854224742  0.1222326123624652
  0.5726972671995920  0.2848596041747039  0.1190104944396762
  0.3208636241059465  0.4669614036317649  0.0988632106356800
  0.7284309271225583  0.9309604947601151  0.2395074279909674
  0.6442134807889528  0.7604404070101094  0.1870943143022361
  0.8995058852580787  0.9420415131268109  0.2213249446107416
  0.8845462002339239  0.6508085731169958  0.0593081434799425
  0.7423361451702047  0.6010360617031726  0.1430836872698036
  0.9667598746084531  0.8228952401715586  0.1016367835959635
  0.8116975954140474  0.7857562532162952  0.1592598214037349
  0.5628818545976031  0.9512545142644373  0.2082736362392821
  0.2196249947867988  0.9636551529243444  0.2350966972784782
  0.1341237383123042  0.7845377654777647  0.2042088869511302
  0.3931261722924028  0.9475834479872429  0.2425370371880336
  0.3741012422442065  0.6619480345375880  0.0829898643801112
  0.2294472082573181  0.6172613090759442  0.1667733712739584
  0.4593129527530495  0.8324034127139136  0.1226503868689203
  0.2986337192931555  0.8058874084592045  0.1691821524323295
  0.0611281160732576  0.9650291585089634  0.1732299315081545
  0.5490031930163962  0.6265179380094618  0.1360553440700292
 
  0.00000000E+00  0.00000000E+00  0.00000000E+00
  0.00000000E+00  0.00000000E+00  0.00000000E+00
  0.00000000E+00  0.00000000E+00  0.00000000E+00
  0.00000000E+00  0.00000000E+00  0.00000000E+00
  0.00000000E+00  0.00000000E+00  0.00000000E+00
  0.00000000E+00  0.00000000E+00  0.00000000E+00
  0.00000000E+00  0.00000000E+00  0.00000000E+00
  0.00000000E+00  0.00000000E+00  0.00000000E+00
  0.00000000E+00  0.00000000E+00  0.00000000E+00
  0.00000000E+00  0.00000000E+00  0.00000000E+00
  0.00000000E+00  0.00000000E+00  0.00000000E+00
  0.00000000E+00  0.00000000E+00  0.00000000E+00
  0.00000000E+00  0.00000000E+00  0.00000000E+00
  0.00000000E+00  0.00000000E+00  0.00000000E+00
  0.00000000E+00  0.00000000E+00  0.00000000E+00
  0.00000000E+00  0.00000000E+00  0.00000000E+00
  0.00000000E+00  0.00000000E+00  0.00000000E+00
  0.00000000E+00  0.00000000E+00  0.00000000E+00
  0.00000000E+00  0.00000000E+00  0.00000000E+00
  0.00000000E+00  0.00000000E+00  0.00000000E+00
  0.00000000E+00  0.00000000E+00  0.00000000E+00
  0.00000000E+00  0.00000000E+00  0.00000000E+00
  0.00000000E+00  0.00000000E+00  0.00000000E+00
  0.00000000E+00  0.00000000E+00  0.00000000E+00
  0.00000000E+00  0.00000000E+00  0.00000000E+00
  0.00000000E+00  0.00000000E+00  0.00000000E+00
  0.00000000E+00  0.00000000E+00  0.00000000E+00
  0.00000000E+00  0.00000000E+00  0.00000000E+00
  0.00000000E+00  0.00000000E+00  0.00000000E+00
  0.00000000E+00  0.00000000E+00  0.00000000E+00
  0.00000000E+00  0.00000000E+00  0.00000000E+00
  0.00000000E+00  0.00000000E+00  0.00000000E+00
  0.00000000E+00  0.00000000E+00  0.00000000E+00
  0.00000000E+00  0.00000000E+00  0.00000000E+00
  0.00000000E+00  0.00000000E+00  0.00000000E+00
  0.00000000E+00  0.00000000E+00  0.00000000E+00
  0.00000000E+00  0.00000000E+00  0.00000000E+00
  0.00000000E+00  0.00000000E+00  0.00000000E+00
  0.00000000E+00  0.00000000E+00  0.00000000E+00
  0.00000000E+00  0.00000000E+00  0.00000000E+00
  0.00000000E+00  0.00000000E+00  0.00000000E+00
  0.00000000E+00  0.00000000E+00  0.00000000E+00
  0.00000000E+00  0.00000000E+00  0.00000000E+00
  0.00000000E+00  0.00000000E+00  0.00000000E+00
  0.00000000E+00  0.00000000E+00  0.00000000E+00
  0.00000000E+00  0.00000000E+00  0.00000000E+00
  0.00000000E+00  0.00000000E+00  0.00000000E+00
  0.00000000E+00  0.00000000E+00  0.00000000E+00
  0.00000000E+00  0.00000000E+00  0.00000000E+00
  0.00000000E+00  0.00000000E+00  0.00000000E+00
  0.00000000E+00  0.00000000E+00  0.00000000E+00
  0.00000000E+00  0.00000000E+00  0.00000000E+00
  0.00000000E+00  0.00000000E+00  0.00000000E+00
  0.00000000E+00  0.00000000E+00  0.00000000E+00
  0.00000000E+00  0.00000000E+00  0.00000000E+00
  0.00000000E+00  0.00000000E+00  0.00000000E+00
  0.00000000E+00  0.00000000E+00  0.00000000E+00
