C  N  Ni                                
   1.00000000000000     
    14.2003984591962329    0.0000000000000000    0.0000000000000000
     0.0000000000000000   12.2861094508720239    0.0000000000000000
     0.0000000000000000    0.0000000000000000   15.0000000000000000
   C    N    Ni
    24    32     1
Direct
  0.0655353718094109  0.4043004968843699  0.1333274409766710
  0.9807431646176995  0.2345030087446142  0.1333111832193208
  0.2259918892872856  0.3980387595904396  0.1333284431709273
  0.8157220006290435  0.5760275153655238  0.1335380554778750
  0.1503230780627375  0.2344978761004781  0.1333053079903673
  0.9050925202254237  0.3980420346642413  0.1333299131193875
  0.5656410522327334  0.4005244047830936  0.1332933554250957
  0.4800189391995267  0.2333714130690307  0.1331882778321967
  0.7271720339613226  0.3981994810076492  0.1335005532831650
  0.3152645986192261  0.5761009083983304  0.1335320435475598
  0.6511460521921481  0.2333024427271889  0.1331845441950476
  0.4040210053304828  0.3983496859730857  0.1335373950018171
  0.8159903254637950  0.9052834943309304  0.1332232355252388
  0.7332897233487888  0.7359993907048380  0.1333685611664841
  0.9765352420893344  0.8985255652801174  0.1333114368352306
  0.9013478282925762  0.7342578178749043  0.1331694522748108
  0.6542148151471688  0.8988882316393119  0.1335266578863342
  0.3148985907855714  0.9054864025487590  0.1332010310081949
  0.2295360643535761  0.7343347575242516  0.1331565456565181
  0.4766553398826188  0.8990934481261089  0.1335083415016050
  0.3974798220072436  0.7362945087491479  0.1332869647475101
  0.1543481118506765  0.8985766737258605  0.1333277222848424
  0.0654773892855478  0.0768684106458624  0.1333120468369606
  0.5655244577929224  0.0763698835229146  0.1333181641188698
  0.9838696846180909  0.4567247139503514  0.1333146491998382
  0.9005371370840997  0.2900524170938676  0.1332752134176244
  0.1472093746409232  0.4567159883568860  0.1333017126237145
  0.1487894440204342  0.1268498803671017  0.1332821111950035
  0.9821766938159270  0.1268443203340764  0.1332912793125479
  0.2305707648207854  0.2900365290539577  0.1332785902910299
  0.0655303955113055  0.2912248524567690  0.1333557342529928
  0.8151964078831621  0.4579237372177142  0.1333782277127312
  0.4855322484118940  0.4564333318960173  0.1337414955153724
  0.4008082962263591  0.2905331285041496  0.1336011891393166
  0.6457050144135620  0.4562985433547400  0.1336999707495552
  0.6491629334556848  0.1261506039272778  0.1334226152991992
  0.4819179572640369  0.1262219061277836  0.1334123458534238
  0.7304126184417449  0.2903704742576733  0.1335840636501534
  0.5655830000142856  0.2897349533198756  0.1325764147404737
  0.3159286790732269  0.4580102983033822  0.1333955775852449
  0.7334753535640118  0.9560474331795142  0.1336305648486294
  0.6513412791355695  0.7883100614382118  0.1337230964780192
  0.8971541883060636  0.9570783670608981  0.1334448683622187
  0.8982941917687749  0.6265317047092497  0.1335170760564377
  0.7320088806035053  0.6282903094392340  0.1338591976407359
  0.9806846036941994  0.7899098035570941  0.1333880310173424
  0.8162907567791068  0.7916336883247930  0.1326366830364528
  0.5654621863474637  0.9572557224383954  0.1333548364243563
  0.2337055212326379  0.9571746488389725  0.1334730152603451
  0.1501913168591611  0.7899536460126905  0.1334430612380615
  0.3974023032053936  0.9562671304671835  0.1336534038677253
  0.3989248028784489  0.6285286292614638  0.1338186831828038
  0.2326947855648074  0.6266081459151244  0.1335617872546987
  0.4794075553293355  0.7885326440517584  0.1336629499174860
  0.3145711406011577  0.7918026921646115  0.1325120583662412
  0.0654415269219581  0.9578800672049019  0.1333123459457565
  0.5642059840394935  0.6243355968387848  0.1372204774824771
 
  0.00000000E+00  0.00000000E+00  0.00000000E+00
  0.00000000E+00  0.00000000E+00  0.00000000E+00
  0.00000000E+00  0.00000000E+00  0.00000000E+00
  0.00000000E+00  0.00000000E+00  0.00000000E+00
  0.00000000E+00  0.00000000E+00  0.00000000E+00
  0.00000000E+00  0.00000000E+00  0.00000000E+00
  0.00000000E+00  0.00000000E+00  0.00000000E+00
  0.00000000E+00  0.00000000E+00  0.00000000E+00
  0.00000000E+00  0.00000000E+00  0.00000000E+00
  0.00000000E+00  0.00000000E+00  0.00000000E+00
  0.00000000E+00  0.00000000E+00  0.00000000E+00
  0.00000000E+00  0.00000000E+00  0.00000000E+00
  0.00000000E+00  0.00000000E+00  0.00000000E+00
  0.00000000E+00  0.00000000E+00  0.00000000E+00
  0.00000000E+00  0.00000000E+00  0.00000000E+00
  0.00000000E+00  0.00000000E+00  0.00000000E+00
  0.00000000E+00  0.00000000E+00  0.00000000E+00
  0.00000000E+00  0.00000000E+00  0.00000000E+00
  0.00000000E+00  0.00000000E+00  0.00000000E+00
  0.00000000E+00  0.00000000E+00  0.00000000E+00
  0.00000000E+00  0.00000000E+00  0.00000000E+00
  0.00000000E+00  0.00000000E+00  0.00000000E+00
  0.00000000E+00  0.00000000E+00  0.00000000E+00
  0.00000000E+00  0.00000000E+00  0.00000000E+00
  0.00000000E+00  0.00000000E+00  0.00000000E+00
  0.00000000E+00  0.00000000E+00  0.00000000E+00
  0.00000000E+00  0.00000000E+00  0.00000000E+00
  0.00000000E+00  0.00000000E+00  0.00000000E+00
  0.00000000E+00  0.00000000E+00  0.00000000E+00
  0.00000000E+00  0.00000000E+00  0.00000000E+00
  0.00000000E+00  0.00000000E+00  0.00000000E+00
  0.00000000E+00  0.00000000E+00  0.00000000E+00
  0.00000000E+00  0.00000000E+00  0.00000000E+00
  0.00000000E+00  0.00000000E+00  0.00000000E+00
  0.00000000E+00  0.00000000E+00  0.00000000E+00
  0.00000000E+00  0.00000000E+00  0.00000000E+00
  0.00000000E+00  0.00000000E+00  0.00000000E+00
  0.00000000E+00  0.00000000E+00  0.00000000E+00
  0.00000000E+00  0.00000000E+00  0.00000000E+00
  0.00000000E+00  0.00000000E+00  0.00000000E+00
  0.00000000E+00  0.00000000E+00  0.00000000E+00
  0.00000000E+00  0.00000000E+00  0.00000000E+00
  0.00000000E+00  0.00000000E+00  0.00000000E+00
  0.00000000E+00  0.00000000E+00  0.00000000E+00
  0.00000000E+00  0.00000000E+00  0.00000000E+00
  0.00000000E+00  0.00000000E+00  0.00000000E+00
  0.00000000E+00  0.00000000E+00  0.00000000E+00
  0.00000000E+00  0.00000000E+00  0.00000000E+00
  0.00000000E+00  0.00000000E+00  0.00000000E+00
  0.00000000E+00  0.00000000E+00  0.00000000E+00
  0.00000000E+00  0.00000000E+00  0.00000000E+00
  0.00000000E+00  0.00000000E+00  0.00000000E+00
  0.00000000E+00  0.00000000E+00  0.00000000E+00
  0.00000000E+00  0.00000000E+00  0.00000000E+00
  0.00000000E+00  0.00000000E+00  0.00000000E+00
  0.00000000E+00  0.00000000E+00  0.00000000E+00
  0.00000000E+00  0.00000000E+00  0.00000000E+00
