C  N  Pd                                
   1.00000000000000     
    13.6799432511082451    0.0000000000000000    0.0000000000000000
     0.0000000000000000   10.9192561403410764    0.0000000000000000
     0.0000000000000000    0.0000000000000000   15.0000000000000000
   C    N    Pd
    24    32     3
Direct
  0.0718541630799314  0.3828337600930459  0.2301324593541653
  0.9804411317407832  0.2158455451914481  0.1666069293454859
  0.2303814827708606  0.3915506898617698  0.1972885050531184
  0.8205309182820831  0.5812063077475463  0.2026711902046937
  0.1495279389301780  0.2469712505529939  0.1222201844639792
  0.9081231483472275  0.3826089096605923  0.2261160769352671
  0.5724304985508903  0.3873292950806751  0.2380747344464000
  0.4800714014444489  0.2204276543027149  0.1776677219666996
  0.7318164852009765  0.3950296144201937  0.2060495331734540
  0.3096280783214566  0.5810300159666444  0.1858269727329443
  0.6487920238396140  0.2527948594922491  0.1300322660686618
  0.4055754901972455  0.3914292814664194  0.2283630338888535
  0.8169579006153921  0.8831099558261944  0.0497975905021190
  0.7282215421343904  0.7229846323875820  0.1248809332975001
  0.9779695961982573  0.8908414584115386  0.0737326998991880
  0.0666928857581785  0.0765126476587587  0.0853966138743114
  0.9011479461108692  0.7485730378025071  0.1554789292914681
  0.6528819236120397  0.8854627952233680  0.0627234842136890
  0.3167361823721271  0.8896824616598000  0.0443642888826995
  0.2252761334375801  0.7166471061593118  0.0994773093379879
  0.4740513448681726  0.9033102616780472  0.0863303036286246
  0.5671843799738794  0.0808913446436960  0.0979469171281570
  0.3836990371605964  0.7650666651856729  0.1621770795911878
  0.1531763194382995  0.8850761815930344  0.0428079319760994
  0.9897692851231451  0.4354313899412926  0.2568318353233732
  0.8996111502191425  0.2654478275511257  0.1992367147279782
  0.1603086837927575  0.4237588560348600  0.2537983049147612
  0.1468047778813878  0.1449677085060707  0.0740259596962207
  0.9840193944888695  0.1057226469378774  0.1281726297171341
  0.2301745930387051  0.3158412082116164  0.1283092682064952
  0.0675262904225012  0.2836913128604985  0.1708940175011141
  0.8233747682657541  0.4540729843238538  0.2216390669478259
  0.4882577679735407  0.4463318696117138  0.2582946010958200
  0.3993013578021095  0.2718088314145892  0.2090253966035709
  0.6606056596812641  0.4252861729990130  0.2636265346259084
  0.6457680959923759  0.1495112314198916  0.0832711575265112
  0.4837166070980425  0.1102265848934594  0.1406427035641126
  0.7275578615213256  0.3233786770961777  0.1341274887924279
  0.5669955461390681  0.2876800049982627  0.1808527527161647
  0.3198328387026289  0.4589081385288040  0.2133283167917153
  0.7325422230826031  0.9368285200716270  0.0282930811170035
  0.6444267502422037  0.7714710814896050  0.0956659560709986
  0.9033251237607847  0.9230968296451209  0.0211685226724048
  0.9024181269881684  0.6471286534642019  0.2039458583316123
  0.7303532010961249  0.6188126475641350  0.1730439446983802
  0.9810801349634766  0.8170010313466931  0.1432762484749273
  0.8153725026633594  0.7840934445816402  0.1099381700079413
  0.5675240826666235  0.9577939819885050  0.0703345352071670
  0.2354678449874218  0.9405927630998272  0.0150853347480645
  0.1463474721051815  0.7642755377187355  0.0629417717483103
  0.4078051964831318  0.9273726894632578  0.0251290250898376
  0.3788253379419289  0.6624805934724103  0.2108694449477031
  0.2323473093998657  0.6042500041163881  0.1346295826908886
  0.4617982589881748  0.8411199274631230  0.1645919600450641
  0.3095816916659190  0.7909496271415498  0.1037418254900145
  0.0681691423205968  0.9541262469887648  0.0541505016344362
  0.5625062703353221  0.8412005982900581  0.2685098775521102
  0.6854022951471851  0.6489969827581051  0.3126086592023395
  0.5050752845082016  0.6282170526363646  0.2830129037495660
 
  0.00000000E+00  0.00000000E+00  0.00000000E+00
  0.00000000E+00  0.00000000E+00  0.00000000E+00
  0.00000000E+00  0.00000000E+00  0.00000000E+00
  0.00000000E+00  0.00000000E+00  0.00000000E+00
  0.00000000E+00  0.00000000E+00  0.00000000E+00
  0.00000000E+00  0.00000000E+00  0.00000000E+00
  0.00000000E+00  0.00000000E+00  0.00000000E+00
  0.00000000E+00  0.00000000E+00  0.00000000E+00
  0.00000000E+00  0.00000000E+00  0.00000000E+00
  0.00000000E+00  0.00000000E+00  0.00000000E+00
  0.00000000E+00  0.00000000E+00  0.00000000E+00
  0.00000000E+00  0.00000000E+00  0.00000000E+00
  0.00000000E+00  0.00000000E+00  0.00000000E+00
  0.00000000E+00  0.00000000E+00  0.00000000E+00
  0.00000000E+00  0.00000000E+00  0.00000000E+00
  0.00000000E+00  0.00000000E+00  0.00000000E+00
  0.00000000E+00  0.00000000E+00  0.00000000E+00
  0.00000000E+00  0.00000000E+00  0.00000000E+00
  0.00000000E+00  0.00000000E+00  0.00000000E+00
  0.00000000E+00  0.00000000E+00  0.00000000E+00
  0.00000000E+00  0.00000000E+00  0.00000000E+00
  0.00000000E+00  0.00000000E+00  0.00000000E+00
  0.00000000E+00  0.00000000E+00  0.00000000E+00
  0.00000000E+00  0.00000000E+00  0.00000000E+00
  0.00000000E+00  0.00000000E+00  0.00000000E+00
  0.00000000E+00  0.00000000E+00  0.00000000E+00
  0.00000000E+00  0.00000000E+00  0.00000000E+00
  0.00000000E+00  0.00000000E+00  0.00000000E+00
  0.00000000E+00  0.00000000E+00  0.00000000E+00
  0.00000000E+00  0.00000000E+00  0.00000000E+00
  0.00000000E+00  0.00000000E+00  0.00000000E+00
  0.00000000E+00  0.00000000E+00  0.00000000E+00
  0.00000000E+00  0.00000000E+00  0.00000000E+00
  0.00000000E+00  0.00000000E+00  0.00000000E+00
  0.00000000E+00  0.00000000E+00  0.00000000E+00
  0.00000000E+00  0.00000000E+00  0.00000000E+00
  0.00000000E+00  0.00000000E+00  0.00000000E+00
  0.00000000E+00  0.00000000E+00  0.00000000E+00
  0.00000000E+00  0.00000000E+00  0.00000000E+00
  0.00000000E+00  0.00000000E+00  0.00000000E+00
  0.00000000E+00  0.00000000E+00  0.00000000E+00
  0.00000000E+00  0.00000000E+00  0.00000000E+00
  0.00000000E+00  0.00000000E+00  0.00000000E+00
  0.00000000E+00  0.00000000E+00  0.00000000E+00
  0.00000000E+00  0.00000000E+00  0.00000000E+00
  0.00000000E+00  0.00000000E+00  0.00000000E+00
  0.00000000E+00  0.00000000E+00  0.00000000E+00
  0.00000000E+00  0.00000000E+00  0.00000000E+00
  0.00000000E+00  0.00000000E+00  0.00000000E+00
  0.00000000E+00  0.00000000E+00  0.00000000E+00
  0.00000000E+00  0.00000000E+00  0.00000000E+00
  0.00000000E+00  0.00000000E+00  0.00000000E+00
  0.00000000E+00  0.00000000E+00  0.00000000E+00
  0.00000000E+00  0.00000000E+00  0.00000000E+00
  0.00000000E+00  0.00000000E+00  0.00000000E+00
  0.00000000E+00  0.00000000E+00  0.00000000E+00
  0.00000000E+00  0.00000000E+00  0.00000000E+00
  0.00000000E+00  0.00000000E+00  0.00000000E+00
  0.00000000E+00  0.00000000E+00  0.00000000E+00
