C  N  Pd
 1.0000000000000000
    13.7597036713648766    0.0000000000000000    0.0000000000000000
     0.0000000000000000   11.2866997085682836    0.0000000000000000
     0.0000000000000000    0.0000000000000000   15.0000000000000000
 C   N   Pd 
  24  32   3
Cartesian
  0.9706260448139709  4.3810969945969322  3.3341242354240679
 13.5053115101721204  2.4642186378727637  2.5178015960721343
  3.1478491737665544  4.4771277110459522  2.8356522293135100
 11.3479491891189515  6.4980146329314730  2.7604786905488354
  2.0599103496165259  2.7837280939874582  1.8416629113593912
 12.4881183272716925  4.3379879092068698  3.2717918752479558
  7.8274236104642148  4.4374935387240741  3.4760594200106567
  6.5727490447575621  2.5272872703525802  2.7026914694863633
 10.0494063144076513  4.4924064683046829  2.9864018052435943
  4.2794217115392374  6.5612929105511055  2.6966543286280427
  8.9000314978106463  2.8262740961058435  2.0065971859310503
  5.5417343907746801  4.4419288304644029  3.3159761334663376
 11.2565461523054804 10.0439163403322151  0.8471279122882874
 10.0885501683297694  8.1905688933444658  1.8672685728267870
 13.4752663274851372 10.1126147323563593  1.1999111921160974
  0.9450039495051697  0.8688925072221250  1.4135781040953450
 12.4563958511000212  8.3813432181362515  2.2079441678545484
  9.0088089991998519 10.0828295564810713  1.1537405024251814
  4.3790738084058685 10.0985743633598339  0.8066198841301755
  3.1257393954415473  8.1407495663394176  1.5126189075604575
  6.5357102033140615 10.2027854702660594  1.4234364836722380
  7.7870235097710996  0.9114165436004436  1.6537149346280819
  5.3129677761555891  8.5821310195725964  2.4544760687187690
  2.1339969816846174 10.0395640776689241  0.7907292758497275
 13.5924615340325214  4.9529476237242474  3.7070483854802161
 12.3826042802000291  3.0446302879318208  2.9324650884172394
  2.1685095963664272  4.8900538336297750  3.6360221956805669
  2.0348989978365357  1.6200546295233551  1.2025960666271476
 -0.1880058616772673  1.2185145202499807  2.0479750379756712
  3.1531657333372016  3.5590862824815082  1.8791235335056411
  0.9268263376865014  3.2278141925212367  2.5333366673317572
 11.3207841408368601  5.1413458496374842  3.1522316061769349
  6.6725942496995252  5.0556908097371593  3.7719347425623280
  5.4555456150609425  3.1225280219422515  3.0937545218636520
  9.0479571569533732  4.9124468806952795  3.8129832333266207
  8.8734408767380213  1.6523890900734228  1.4062182338215337
  6.6441098290990848  1.2778074658821481  2.2622063577448994
  9.9904240961184136  3.5971749874913130  2.0182078917684572
  7.7701880969812978  3.2884164047050568  2.7012545250225868
  4.3877824257987248  5.2017007376093645  3.0493702863047161
 10.0841770006133249 10.6375334944084319  0.5948424241161435
  8.9288351104919421  8.8394608887963830  1.6881895086820229
 12.4363911016480468 10.5495680742475653  0.4784888958074700
 12.4802823967226875  7.2017663445640476  2.8132368448736700
 10.1336696381832709  6.9638696265377265  2.3901590533992749
 13.5287754530544486  9.1661955244468309  2.1295728173937722
 11.2726399840398166  8.8488321314429701  1.5959269406102865
  7.8160874632204260 10.8436301660873671  1.2780110420390400
  3.2610111310448691 10.6634988402662696  0.3986587467859740
  2.0392225099306915  8.7102914775266296  1.0265976116343556
  5.6130553691053802 10.5594277828985987  0.5469496811382165
  5.2352206563656045  7.4309618762070313  3.1408859115790078
  3.2336752548053980  6.8730203603027302  1.9275942261182235
  6.4020839691321338  9.3707547384002048  2.4867071095601743
  4.2810720527271524  8.9541960851529989  1.6337864954983934
  0.9618393440516002 10.8074801582098168  0.9771976331578366
  7.9443791699448383  8.7638597992223914  3.6290911484891701
  9.0239234994952255  6.8592170302272235  4.4685734454876416
  6.7010718078736407  6.9545312560008359  4.4094088254214832
