#Comments
SYSTEM =slab_Cel1-OPT      
         
#I/O 
ISTART = 0            
ICHARG = 2           
LWAVE = .F.       
LAECHG = .F.       
LCHARG = .F.       
LELF = .False.          

#ELECTRONIC RELAXATION 
ENCUT = 400            
PREC = N        
NELM = 200                          
ALGO = N         
ISMEAR = 0          
SIGMA = 0.1          
EDIFF = 1E-5
#ADDGRID = .TRUE.                       

#IONIC RELAXATION 
IBRION = 2       
#NFREE = 2 
POTIM = 0.1           
EDIFFG = -0.05         
ISIF = 3               
NSW = 1000
#ISYM = 0              
#IVDW = 11
#LSOL = T
#EB_K = 80

#POLARIZATION
#ISPIN = 2             
#MAGMOM = 2*3.0

#NEDOS = 3000
#LORBIT = 11
#LOSRBIT = .FALSE    

#SLAB   
LDIPOL = .True.
IDIPOL = 3
 
#PARALLIZATION         
LREAL = AUTO                        
#NPAR = 8              
#KPAR = 4              
#LPLANE = .FALSE
#NSIM = 1
NCORE = 8
