C  N  Ni                                
   1.00000000000000     
    13.7763149175428392    0.0000000000000000    0.0000000000000000
     0.0000000000000000   10.6998640916324028    0.0000000000000000
     0.0000000000000000    0.0000000000000000   15.0000000000000000
   C    N    Ni
    24    32     3
Direct
  0.0665820265520588  0.3786918773587484  0.2395583791482031
  0.9760736220843432  0.2123472670151701  0.1686083003367135
  0.2228183096763540  0.3942853863416065  0.2029969801027741
  0.8318510099587733  0.5855558006417461  0.2161398188962173
  0.1421688526113802  0.2524640306521234  0.1229159008291303
  0.9040467597848636  0.3767267393916431  0.2369269504104476
  0.5644912385992152  0.3908197986589512  0.2454748425934313
  0.4778787439409864  0.2207864450794131  0.1766830585178883
  0.7280436237677048  0.4029546172176922  0.2195867157516298
  0.3062436877559838  0.5824647069809102  0.1846704448196425
  0.6487901233336097  0.2537998831336166  0.1418014015967581
  0.3980648356009663  0.3899500100246849  0.2297912932092314
  0.8221851172173871  0.8707456356107558  0.0405338256572737
  0.7444483886405521  0.7468619511760226  0.1540051861407857
  0.9828778922258218  0.8861696436204127  0.0606679406946218
  0.0631948320937905  0.0795850445399587  0.0798400563166108
  0.9153069308761215  0.7381595830311551  0.1469535753071363
  0.6623140150457633  0.8951955054379253  0.0720300106006968
  0.3204111063839856  0.8959957109147986  0.0363594963969972
  0.2268820470677477  0.7199040445630296  0.0930125382641321
  0.4800304213925888  0.9007919433486341  0.0712281648290935
  0.5681920991379081  0.0828706931444634  0.0971273869622647
  0.3873308139485619  0.7605331412940752  0.1491292327819652
  0.1569527856304054  0.8909329245339246  0.0333881135990372
  0.9848942995840376  0.4268710980502963  0.2711250842909044
  0.8954604891355249  0.2610768109400756  0.2027775243603314
  0.1542500251044831  0.4225947195848988  0.2618456247335358
  0.1399488348876011  0.1542111586557494  0.0689863534057304
  0.9811306121346248  0.1027516768482935  0.1255457721847713
  0.2215528400863766  0.3229507260920514  0.1309565483536443
  0.0619506291376446  0.2825647511260135  0.1757501904952339
  0.8214219133158551  0.4573967035005336  0.2364532914098447
  0.4779018273072871  0.4461649956802997  0.2650894722940447
  0.3945924011957163  0.2728045831764374  0.2005009642940717
  0.6504855798680067  0.4418131949974757  0.2702644015482654
  0.6486336204732631  0.1519246861568288  0.0916163360045281
  0.4831240410403768  0.1118915209974185  0.1351844314557667
  0.7260548115159469  0.3269314042054096  0.1500127834520412
  0.5649195628374557  0.2867838104185522  0.1912613222892345
  0.3122990870440624  0.4608125935297353  0.2187056158193283
  0.7357726008536378  0.9181580077257397  0.0168530381804989
  0.6653401627838801  0.8197953511425254  0.1444251057862944
  0.9064511904627262  0.9143874789891981  0.0097384513512501
  0.9175185920998565  0.6382646080605244  0.1993348499697004
  0.7465291466464129  0.6514910729321036  0.2108897287452367
  0.9916356326952638  0.8084715279605131  0.1294554732705682
  0.8260358260269473  0.7757437703908889  0.1062412699547467
  0.5719542278303057  0.9614051864079888  0.0615946614713954
  0.2386683651973848  0.9496676079087962  0.0095450219633972
  0.1505209238634299  0.7671797867052377  0.0523975249517971
  0.4099827348266796  0.9354704559591623  0.0159114739081389
  0.3801839075372346  0.6618227126846425  0.2046183886341728
  0.2300508320737899  0.6080782126318576  0.1334195574268315
  0.4704813760686359  0.8255434522581699  0.1438104547755990
  0.3121072696132212  0.7932342054528616  0.0954995743072906
  0.0692441391488825  0.9578626874279110  0.0428881106133168
  0.5673699711014050  0.7752030827786353  0.2235043249327430
  0.6488274351831507  0.6186568691421582  0.2960607830246645
  0.4826866878663903  0.6205164964645743  0.2814845180650569
 
  0.00000000E+00  0.00000000E+00  0.00000000E+00
  0.00000000E+00  0.00000000E+00  0.00000000E+00
  0.00000000E+00  0.00000000E+00  0.00000000E+00
  0.00000000E+00  0.00000000E+00  0.00000000E+00
  0.00000000E+00  0.00000000E+00  0.00000000E+00
  0.00000000E+00  0.00000000E+00  0.00000000E+00
  0.00000000E+00  0.00000000E+00  0.00000000E+00
  0.00000000E+00  0.00000000E+00  0.00000000E+00
  0.00000000E+00  0.00000000E+00  0.00000000E+00
  0.00000000E+00  0.00000000E+00  0.00000000E+00
  0.00000000E+00  0.00000000E+00  0.00000000E+00
  0.00000000E+00  0.00000000E+00  0.00000000E+00
  0.00000000E+00  0.00000000E+00  0.00000000E+00
  0.00000000E+00  0.00000000E+00  0.00000000E+00
  0.00000000E+00  0.00000000E+00  0.00000000E+00
  0.00000000E+00  0.00000000E+00  0.00000000E+00
  0.00000000E+00  0.00000000E+00  0.00000000E+00
  0.00000000E+00  0.00000000E+00  0.00000000E+00
  0.00000000E+00  0.00000000E+00  0.00000000E+00
  0.00000000E+00  0.00000000E+00  0.00000000E+00
  0.00000000E+00  0.00000000E+00  0.00000000E+00
  0.00000000E+00  0.00000000E+00  0.00000000E+00
  0.00000000E+00  0.00000000E+00  0.00000000E+00
  0.00000000E+00  0.00000000E+00  0.00000000E+00
  0.00000000E+00  0.00000000E+00  0.00000000E+00
  0.00000000E+00  0.00000000E+00  0.00000000E+00
  0.00000000E+00  0.00000000E+00  0.00000000E+00
  0.00000000E+00  0.00000000E+00  0.00000000E+00
  0.00000000E+00  0.00000000E+00  0.00000000E+00
  0.00000000E+00  0.00000000E+00  0.00000000E+00
  0.00000000E+00  0.00000000E+00  0.00000000E+00
  0.00000000E+00  0.00000000E+00  0.00000000E+00
  0.00000000E+00  0.00000000E+00  0.00000000E+00
  0.00000000E+00  0.00000000E+00  0.00000000E+00
  0.00000000E+00  0.00000000E+00  0.00000000E+00
  0.00000000E+00  0.00000000E+00  0.00000000E+00
  0.00000000E+00  0.00000000E+00  0.00000000E+00
  0.00000000E+00  0.00000000E+00  0.00000000E+00
  0.00000000E+00  0.00000000E+00  0.00000000E+00
  0.00000000E+00  0.00000000E+00  0.00000000E+00
  0.00000000E+00  0.00000000E+00  0.00000000E+00
  0.00000000E+00  0.00000000E+00  0.00000000E+00
  0.00000000E+00  0.00000000E+00  0.00000000E+00
  0.00000000E+00  0.00000000E+00  0.00000000E+00
  0.00000000E+00  0.00000000E+00  0.00000000E+00
  0.00000000E+00  0.00000000E+00  0.00000000E+00
  0.00000000E+00  0.00000000E+00  0.00000000E+00
  0.00000000E+00  0.00000000E+00  0.00000000E+00
  0.00000000E+00  0.00000000E+00  0.00000000E+00
  0.00000000E+00  0.00000000E+00  0.00000000E+00
  0.00000000E+00  0.00000000E+00  0.00000000E+00
  0.00000000E+00  0.00000000E+00  0.00000000E+00
  0.00000000E+00  0.00000000E+00  0.00000000E+00
  0.00000000E+00  0.00000000E+00  0.00000000E+00
  0.00000000E+00  0.00000000E+00  0.00000000E+00
  0.00000000E+00  0.00000000E+00  0.00000000E+00
  0.00000000E+00  0.00000000E+00  0.00000000E+00
  0.00000000E+00  0.00000000E+00  0.00000000E+00
  0.00000000E+00  0.00000000E+00  0.00000000E+00
