C  N  Cu Pd                             
   1.00000000000000     
    13.7029261000165086    0.0000000000000000    0.0000000000000000
     0.0000000000000000   10.8751574028646090    0.0000000000000000
     0.0000000000000000    0.0000000000000000   15.0000000000000000
   C    N    Cu   Pd
    24    32     1     2
Direct
  0.0723040385839002  0.3811079787955423  0.2299720690625810
  0.9805110834957915  0.2146338593303486  0.1649256372450301
  0.2305631359165635  0.3911103861753138  0.1953778005064226
  0.8251738316796341  0.5813009195692337  0.2070679550068179
  0.1493067951191132  0.2465965892207313  0.1201995215869994
  0.9085661483419764  0.3800161059390014  0.2276867717408831
  0.5704785956814570  0.3953537795238077  0.2370748284665137
  0.4786503226594637  0.2252500293293278  0.1788318684139325
  0.7313910079507246  0.3973193371109556  0.2082249493103569
  0.3090430609525864  0.5818004766805469  0.1818152755731595
  0.6466294908952921  0.2591044236035101  0.1296650098028291
  0.4047678225505667  0.3955082851635510  0.2293505007333475
  0.8177892759355880  0.8821735270330571  0.0497211681953722
  0.7332553603278090  0.7292148543283806  0.1360748970854841
  0.9794442915579769  0.8897470645624901  0.0695109291095085
  0.0664806553209209  0.0765575625420247  0.0818400912400138
  0.9067695253865176  0.7451564353520509  0.1531778722332808
  0.6542183823002038  0.8907227798439427  0.0700234677669889
  0.3168710848647182  0.8927601379340966  0.0415417033220013
  0.2249834490576510  0.7173100653824748  0.0951181074108226
  0.4736154502485641  0.9060929627572738  0.0842832283621413
  0.5661347148223745  0.0853263366026011  0.0992264070701309
  0.3832670813417293  0.7632604820717315  0.1576073848828097
  0.1536072579716484  0.8856897032188270  0.0374480266467726
  0.9904443596387819  0.4319610944398144  0.2589107601662748
  0.8996882090161458  0.2637234872163788  0.1980161828411386
  0.1608182476981226  0.4230767420396850  0.2523113957289726
  0.1461216180491469  0.1455279140491884  0.0705865580971598
  0.9841732276223760  0.1046037543463135  0.1255461773034939
  0.2302704646943033  0.3145405751732194  0.1266656177586210
  0.0675611568993425  0.2826968533983223  0.1695999202045719
  0.8244557786868023  0.4535217808612325  0.2254966447934156
  0.4871973634987413  0.4527161972837291  0.2585018754986232
  0.3990752691104297  0.2735099125889450  0.2141642312262437
  0.6598437749877227  0.4281041286146940  0.2657175667689843
  0.6447344441814776  0.1542288040622296  0.0843733773004306
  0.4836351345383247  0.1139389496959670  0.1429210806239555
  0.7269590679070486  0.3277288560457948  0.1356310728379050
  0.5645069385948260  0.2971967082323062  0.1777414169173618
  0.3192097195463153  0.4601674374344091  0.2099791546918075
  0.7325240325388270  0.9351583519038120  0.0290142552663476
  0.6484381609276983  0.7840674590270185  0.1160167947193358
  0.9030049947693315  0.9224357864554755  0.0193261149234824
  0.9085788700939864  0.6440773093309077  0.2025288636575887
  0.7350145836892147  0.6252381554710515  0.1838121420964190
  0.9853998460343144  0.8138043960790875  0.1383584297279726
  0.8190873819023006  0.7828117704722608  0.1107105517149124
  0.5672788999997355  0.9617251866826073  0.0712330038249360
  0.2358603409978225  0.9424046639119869  0.0109710404241324
  0.1469116980059125  0.7643187828172683  0.0565548094210388
  0.4074724427045235  0.9326760706345321  0.0233526300907119
  0.3801566802208607  0.6608225082089224  0.2056749499298291
  0.2312175375062877  0.6049330011678389  0.1308844201797673
  0.4621097293977056  0.8372215202910879  0.1590197123444118
  0.3086773272372610  0.7931249654152954  0.1010593890886121
  0.0682754285041479  0.9545035310868780  0.0488800852118502
  0.5664858345514764  0.7776135414255225  0.2353239660187687
  0.6757159512913765  0.6396047797485491  0.3170415698043787
  0.4824345018689106  0.6221903330118710  0.3314864095090035
 
  0.00000000E+00  0.00000000E+00  0.00000000E+00
  0.00000000E+00  0.00000000E+00  0.00000000E+00
  0.00000000E+00  0.00000000E+00  0.00000000E+00
  0.00000000E+00  0.00000000E+00  0.00000000E+00
  0.00000000E+00  0.00000000E+00  0.00000000E+00
  0.00000000E+00  0.00000000E+00  0.00000000E+00
  0.00000000E+00  0.00000000E+00  0.00000000E+00
  0.00000000E+00  0.00000000E+00  0.00000000E+00
  0.00000000E+00  0.00000000E+00  0.00000000E+00
  0.00000000E+00  0.00000000E+00  0.00000000E+00
  0.00000000E+00  0.00000000E+00  0.00000000E+00
  0.00000000E+00  0.00000000E+00  0.00000000E+00
  0.00000000E+00  0.00000000E+00  0.00000000E+00
  0.00000000E+00  0.00000000E+00  0.00000000E+00
  0.00000000E+00  0.00000000E+00  0.00000000E+00
  0.00000000E+00  0.00000000E+00  0.00000000E+00
  0.00000000E+00  0.00000000E+00  0.00000000E+00
  0.00000000E+00  0.00000000E+00  0.00000000E+00
  0.00000000E+00  0.00000000E+00  0.00000000E+00
  0.00000000E+00  0.00000000E+00  0.00000000E+00
  0.00000000E+00  0.00000000E+00  0.00000000E+00
  0.00000000E+00  0.00000000E+00  0.00000000E+00
  0.00000000E+00  0.00000000E+00  0.00000000E+00
  0.00000000E+00  0.00000000E+00  0.00000000E+00
  0.00000000E+00  0.00000000E+00  0.00000000E+00
  0.00000000E+00  0.00000000E+00  0.00000000E+00
  0.00000000E+00  0.00000000E+00  0.00000000E+00
  0.00000000E+00  0.00000000E+00  0.00000000E+00
  0.00000000E+00  0.00000000E+00  0.00000000E+00
  0.00000000E+00  0.00000000E+00  0.00000000E+00
  0.00000000E+00  0.00000000E+00  0.00000000E+00
  0.00000000E+00  0.00000000E+00  0.00000000E+00
  0.00000000E+00  0.00000000E+00  0.00000000E+00
  0.00000000E+00  0.00000000E+00  0.00000000E+00
  0.00000000E+00  0.00000000E+00  0.00000000E+00
  0.00000000E+00  0.00000000E+00  0.00000000E+00
  0.00000000E+00  0.00000000E+00  0.00000000E+00
  0.00000000E+00  0.00000000E+00  0.00000000E+00
  0.00000000E+00  0.00000000E+00  0.00000000E+00
  0.00000000E+00  0.00000000E+00  0.00000000E+00
  0.00000000E+00  0.00000000E+00  0.00000000E+00
  0.00000000E+00  0.00000000E+00  0.00000000E+00
  0.00000000E+00  0.00000000E+00  0.00000000E+00
  0.00000000E+00  0.00000000E+00  0.00000000E+00
  0.00000000E+00  0.00000000E+00  0.00000000E+00
  0.00000000E+00  0.00000000E+00  0.00000000E+00
  0.00000000E+00  0.00000000E+00  0.00000000E+00
  0.00000000E+00  0.00000000E+00  0.00000000E+00
  0.00000000E+00  0.00000000E+00  0.00000000E+00
  0.00000000E+00  0.00000000E+00  0.00000000E+00
  0.00000000E+00  0.00000000E+00  0.00000000E+00
  0.00000000E+00  0.00000000E+00  0.00000000E+00
  0.00000000E+00  0.00000000E+00  0.00000000E+00
  0.00000000E+00  0.00000000E+00  0.00000000E+00
  0.00000000E+00  0.00000000E+00  0.00000000E+00
  0.00000000E+00  0.00000000E+00  0.00000000E+00
  0.00000000E+00  0.00000000E+00  0.00000000E+00
  0.00000000E+00  0.00000000E+00  0.00000000E+00
  0.00000000E+00  0.00000000E+00  0.00000000E+00
