C  N  Au Pd                             
   1.00000000000000     
    12.8858310974850738    0.0000000000000000    0.0000000000000000
     0.0000000000000000   11.6100255317838723    0.0000000000000000
     0.0000000000000000    0.0000000000000000   15.0000000000000000
   C    N    Au   Pd
    24    32     1     1
Direct
  0.0430173562801078  0.3989203302845322  0.1142084217270821
  0.9945630061554399  0.2446526270133018  0.2190041299718963
  0.2076743950085322  0.3945211704218057  0.0627894434290817
  0.7985423930419735  0.5813485228810765  0.2230299363350691
  0.1540955390050756  0.2343411940021458  0.1343880098388730
  0.8962852277247895  0.4028339183951848  0.1972812082250636
  0.5428617739027428  0.3986796871594291  0.1260909104130800
  0.4942920390187712  0.2401985421622724  0.0287142628749368
  0.7103292939658055  0.4004593050658213  0.1809241192906760
  0.2990621550016335  0.5787500623142999  0.0451199438539522
  0.6581347512683869  0.2372317266056613  0.1099614599790073
  0.3938989375361158  0.3982341877637940  0.0467712854990039
  0.8451136119287015  0.8933074104919277  0.1234240640507716
  0.7256000031485669  0.7448964930958142  0.1661692600320967
  0.9945692539605054  0.8990687655924252  0.2025883469824401
  0.0878808239234572  0.0797592698074714  0.2049803557508708
  0.8983861815159357  0.7412528491640401  0.2283568118634491
  0.6769722998706988  0.8965687256717237  0.0822624971659692
  0.3438998937520188  0.8972787158557479  0.1370822089800273
  0.2321925195972123  0.7339952762657500  0.1147682302631128
  0.4933589141285347  0.8992973711734680  0.0581642793872853
  0.5906423213294403  0.0779623387374020  0.0464800882691311
  0.3952532049239280  0.7414683491734261  0.0351033854512380
  0.1788678882026179  0.8953602841577208  0.1859157315516183
  0.9512997008426209  0.4494582518341823  0.1312721272884909
  0.9139265550460731  0.3093150193429063  0.2461951905229625
  0.1134054949430930  0.4440191158231340  0.0594040248678092
  0.1618649843387621  0.1238024069269059  0.1539970906229941
  0.0094462241140329  0.1358883181054276  0.2455469854938945
  0.2299699546652504  0.2899839982300519  0.0933069587204843
  0.0638782988900823  0.2938305567115698  0.1572331839543901
  0.7968548672217842  0.4617690878926367  0.2128099873505171
  0.4526709056614700  0.4485055936296240  0.1093613234840880
  0.4119612874285900  0.3021223436651297  0.0011310983537121
  0.6138924504209144  0.4478882123865283  0.1801689119935951
  0.6682965482384838  0.1272156187103292  0.0907527903135386
  0.5101260369493320  0.1306976649503899  0.0058888869306031
  0.7326689929821777  0.2962477072984630  0.1503246957594189
  0.5649642539148130  0.2930126456490453  0.0880830842989854
  0.2959080078059393  0.4569057529955197  0.0339290091996945
  0.7729497052251495  0.9362599018283436  0.0687508211354421
  0.6485207817206466  0.8047024482459070  0.1304828455249943
  0.9368507033226012  0.9434347967853667  0.1365138927601873
  0.8858011212088671  0.6313854322076018  0.2516914567527161
  0.7116188189415209  0.6394990206583492  0.1989783947007188
  0.9797383047709317  0.8055278246659617  0.2520239199570357
  0.8240565625960428  0.7919066226303447  0.1708610195699158
  0.5919367037949782  0.9568657219454723  0.0452120177367959
  0.2731086455278252  0.9434810773419287  0.1908382984180245
  0.1557213596123136  0.7916775873378228  0.1533651211342925
  0.4349728922657502  0.9485192687474722  0.1206003145450012
  0.3789475657000961  0.6339244866266519  0.0063979678017844
  0.2239953413616767  0.6233437326031364  0.0943998640311822
  0.4785675042537788  0.8034785071895991  0.0110221504393229
  0.3239817050263830  0.7917632922071121  0.0945469243438429
  0.0914539657922563  0.9586244376415611  0.2150513963736164
  0.3939069001183441  0.5921714971861092  0.3271084154724594
  0.5654658095246403  0.5960765314218688  0.2485014389618075
 
  0.00000000E+00  0.00000000E+00  0.00000000E+00
  0.00000000E+00  0.00000000E+00  0.00000000E+00
  0.00000000E+00  0.00000000E+00  0.00000000E+00
  0.00000000E+00  0.00000000E+00  0.00000000E+00
  0.00000000E+00  0.00000000E+00  0.00000000E+00
  0.00000000E+00  0.00000000E+00  0.00000000E+00
  0.00000000E+00  0.00000000E+00  0.00000000E+00
  0.00000000E+00  0.00000000E+00  0.00000000E+00
  0.00000000E+00  0.00000000E+00  0.00000000E+00
  0.00000000E+00  0.00000000E+00  0.00000000E+00
  0.00000000E+00  0.00000000E+00  0.00000000E+00
  0.00000000E+00  0.00000000E+00  0.00000000E+00
  0.00000000E+00  0.00000000E+00  0.00000000E+00
  0.00000000E+00  0.00000000E+00  0.00000000E+00
  0.00000000E+00  0.00000000E+00  0.00000000E+00
  0.00000000E+00  0.00000000E+00  0.00000000E+00
  0.00000000E+00  0.00000000E+00  0.00000000E+00
  0.00000000E+00  0.00000000E+00  0.00000000E+00
  0.00000000E+00  0.00000000E+00  0.00000000E+00
  0.00000000E+00  0.00000000E+00  0.00000000E+00
  0.00000000E+00  0.00000000E+00  0.00000000E+00
  0.00000000E+00  0.00000000E+00  0.00000000E+00
  0.00000000E+00  0.00000000E+00  0.00000000E+00
  0.00000000E+00  0.00000000E+00  0.00000000E+00
  0.00000000E+00  0.00000000E+00  0.00000000E+00
  0.00000000E+00  0.00000000E+00  0.00000000E+00
  0.00000000E+00  0.00000000E+00  0.00000000E+00
  0.00000000E+00  0.00000000E+00  0.00000000E+00
  0.00000000E+00  0.00000000E+00  0.00000000E+00
  0.00000000E+00  0.00000000E+00  0.00000000E+00
  0.00000000E+00  0.00000000E+00  0.00000000E+00
  0.00000000E+00  0.00000000E+00  0.00000000E+00
  0.00000000E+00  0.00000000E+00  0.00000000E+00
  0.00000000E+00  0.00000000E+00  0.00000000E+00
  0.00000000E+00  0.00000000E+00  0.00000000E+00
  0.00000000E+00  0.00000000E+00  0.00000000E+00
  0.00000000E+00  0.00000000E+00  0.00000000E+00
  0.00000000E+00  0.00000000E+00  0.00000000E+00
  0.00000000E+00  0.00000000E+00  0.00000000E+00
  0.00000000E+00  0.00000000E+00  0.00000000E+00
  0.00000000E+00  0.00000000E+00  0.00000000E+00
  0.00000000E+00  0.00000000E+00  0.00000000E+00
  0.00000000E+00  0.00000000E+00  0.00000000E+00
  0.00000000E+00  0.00000000E+00  0.00000000E+00
  0.00000000E+00  0.00000000E+00  0.00000000E+00
  0.00000000E+00  0.00000000E+00  0.00000000E+00
  0.00000000E+00  0.00000000E+00  0.00000000E+00
  0.00000000E+00  0.00000000E+00  0.00000000E+00
  0.00000000E+00  0.00000000E+00  0.00000000E+00
  0.00000000E+00  0.00000000E+00  0.00000000E+00
  0.00000000E+00  0.00000000E+00  0.00000000E+00
  0.00000000E+00  0.00000000E+00  0.00000000E+00
  0.00000000E+00  0.00000000E+00  0.00000000E+00
  0.00000000E+00  0.00000000E+00  0.00000000E+00
  0.00000000E+00  0.00000000E+00  0.00000000E+00
  0.00000000E+00  0.00000000E+00  0.00000000E+00
  0.00000000E+00  0.00000000E+00  0.00000000E+00
  0.00000000E+00  0.00000000E+00  0.00000000E+00
