C  N  Au Pd                             
   1.00000000000000     
    13.7001692787490974    0.0000000000000000    0.0000000000000000
     0.0000000000000000   10.9124900672018121    0.0000000000000000
     0.0000000000000000    0.0000000000000000   15.0000000000000000
   C    N    Au   Pd
    24    32     1     2
Direct
  0.0713586006975430  0.3892717895729245  0.2284763433952951
  0.9805882458969689  0.2196451179962809  0.1682158165334495
  0.2299632736446302  0.3962859563406794  0.1960974365886055
  0.8182711796007701  0.5806331462675004  0.1882519918825042
  0.1488635149716624  0.2505202637696626  0.1226850567860981
  0.9078867218261385  0.3874818430538425  0.2251417042453530
  0.5714060787486033  0.3900917123718015  0.2324681451089740
  0.4795837791834306  0.2208105562401257  0.1748542312318077
  0.7321964437833474  0.3955414526698163  0.2038796400899930
  0.3118777894987116  0.5842890370928528  0.1861920462101271
  0.6486890005224739  0.2518320765805345  0.1285975849896126
  0.4054931293810812  0.3934757332117396  0.2231302785373632
  0.8157148191210701  0.8891641610687142  0.0463111365462165
  0.7276392727559889  0.7201914740565445  0.1110287814553990
  0.9757390956980236  0.8970946975876273  0.0736024634897318
  0.0662266305638525  0.0799240300642856  0.0871200463945168
  0.8972849174088905  0.7525226853689889  0.1508738133007601
  0.6518437735404226  0.8875247281772999  0.0557656262791795
  0.3156801631018473  0.8929040208781042  0.0437249148882780
  0.2252774042103330  0.7211395540310916  0.1023936683890992
  0.4739387511611309  0.9020060595904068  0.0799855891328679
  0.5664540629280929  0.0811753673704160  0.0943246746516817
  0.3886014547791488  0.7638696226490598  0.1564431010821331
  0.1518563872897123  0.8878032222910174  0.0453833535237333
  0.9888660312512993  0.4426786497577941  0.2538446384139913
  0.8998188852800648  0.2693205971685578  0.2008409606378282
  0.1594376894943067  0.4306513505895103  0.2516145143084716
  0.1459917392016719  0.1479678347375941  0.0750956786830743
  0.9839586699615379  0.1090608886178207  0.1306918146968992
  0.2294160715568749  0.3189282966540601  0.1280024331106552
  0.0670294117198374  0.2881128996349667  0.1710627161050027
  0.8219250956381908  0.4577134573260848  0.2190711289837377
  0.4885128814677492  0.4514485431846977  0.2475587491145254
  0.3993651416239426  0.2722618480171586  0.2069826476734001
  0.6601852938353232  0.4272374082183989  0.2613206236668634
  0.6459304323274020  0.1491194293503063  0.0814604839717356
  0.4835080937642674  0.1106458618089445  0.1374602757388545
  0.7281697685686903  0.3214100890476874  0.1341115460341630
  0.5670679600357158  0.2881147504780250  0.1776528497638452
  0.3198863647505500  0.4611448549695441  0.2115415290999349
  0.7319697183884947  0.9414912613259425  0.0231305090009447
  0.6447243073849772  0.7701783984837224  0.0827329972898488
  0.9031741450845877  0.9300749154766708  0.0198535181421727
  0.8974434299960559  0.6497284119793234  0.1984435603460207
  0.7339906740943838  0.6087749126257066  0.1472684524126985
  0.9770523709158805  0.8216632630299728  0.1429329818547262
  0.8137549025221625  0.7888180635540408  0.1046643545751366
  0.5668191984600771  0.9590618195531779  0.0639748198437519
  0.2331860969907601  0.9428060578028804  0.0158700255456911
  0.1448157577878103  0.7685028919716158  0.0679887924951675
  0.4049391902110058  0.9330653759985255  0.0219404369731292
  0.3838523554136905  0.6633537306438145  0.2085408079303456
  0.2330258965226013  0.6091402185529533  0.1373251065892128
  0.4691909987863664  0.8305628937285549  0.1520186855465699
  0.3098700732740520  0.7940662990976792  0.1036670174018873
  0.0668656595525745  0.9580895871051743  0.0554731572584267
  0.5987032631785134  0.7888000137290807  0.3906737550034409
  0.6668243158593976  0.5720929452020970  0.3516438967120104
  0.5054545046596777  0.6278032629716217  0.2917747318297141
 
  0.00000000E+00  0.00000000E+00  0.00000000E+00
  0.00000000E+00  0.00000000E+00  0.00000000E+00
  0.00000000E+00  0.00000000E+00  0.00000000E+00
  0.00000000E+00  0.00000000E+00  0.00000000E+00
  0.00000000E+00  0.00000000E+00  0.00000000E+00
  0.00000000E+00  0.00000000E+00  0.00000000E+00
  0.00000000E+00  0.00000000E+00  0.00000000E+00
  0.00000000E+00  0.00000000E+00  0.00000000E+00
  0.00000000E+00  0.00000000E+00  0.00000000E+00
  0.00000000E+00  0.00000000E+00  0.00000000E+00
  0.00000000E+00  0.00000000E+00  0.00000000E+00
  0.00000000E+00  0.00000000E+00  0.00000000E+00
  0.00000000E+00  0.00000000E+00  0.00000000E+00
  0.00000000E+00  0.00000000E+00  0.00000000E+00
  0.00000000E+00  0.00000000E+00  0.00000000E+00
  0.00000000E+00  0.00000000E+00  0.00000000E+00
  0.00000000E+00  0.00000000E+00  0.00000000E+00
  0.00000000E+00  0.00000000E+00  0.00000000E+00
  0.00000000E+00  0.00000000E+00  0.00000000E+00
  0.00000000E+00  0.00000000E+00  0.00000000E+00
  0.00000000E+00  0.00000000E+00  0.00000000E+00
  0.00000000E+00  0.00000000E+00  0.00000000E+00
  0.00000000E+00  0.00000000E+00  0.00000000E+00
  0.00000000E+00  0.00000000E+00  0.00000000E+00
  0.00000000E+00  0.00000000E+00  0.00000000E+00
  0.00000000E+00  0.00000000E+00  0.00000000E+00
  0.00000000E+00  0.00000000E+00  0.00000000E+00
  0.00000000E+00  0.00000000E+00  0.00000000E+00
  0.00000000E+00  0.00000000E+00  0.00000000E+00
  0.00000000E+00  0.00000000E+00  0.00000000E+00
  0.00000000E+00  0.00000000E+00  0.00000000E+00
  0.00000000E+00  0.00000000E+00  0.00000000E+00
  0.00000000E+00  0.00000000E+00  0.00000000E+00
  0.00000000E+00  0.00000000E+00  0.00000000E+00
  0.00000000E+00  0.00000000E+00  0.00000000E+00
  0.00000000E+00  0.00000000E+00  0.00000000E+00
  0.00000000E+00  0.00000000E+00  0.00000000E+00
  0.00000000E+00  0.00000000E+00  0.00000000E+00
  0.00000000E+00  0.00000000E+00  0.00000000E+00
  0.00000000E+00  0.00000000E+00  0.00000000E+00
  0.00000000E+00  0.00000000E+00  0.00000000E+00
  0.00000000E+00  0.00000000E+00  0.00000000E+00
  0.00000000E+00  0.00000000E+00  0.00000000E+00
  0.00000000E+00  0.00000000E+00  0.00000000E+00
  0.00000000E+00  0.00000000E+00  0.00000000E+00
  0.00000000E+00  0.00000000E+00  0.00000000E+00
  0.00000000E+00  0.00000000E+00  0.00000000E+00
  0.00000000E+00  0.00000000E+00  0.00000000E+00
  0.00000000E+00  0.00000000E+00  0.00000000E+00
  0.00000000E+00  0.00000000E+00  0.00000000E+00
  0.00000000E+00  0.00000000E+00  0.00000000E+00
  0.00000000E+00  0.00000000E+00  0.00000000E+00
  0.00000000E+00  0.00000000E+00  0.00000000E+00
  0.00000000E+00  0.00000000E+00  0.00000000E+00
  0.00000000E+00  0.00000000E+00  0.00000000E+00
  0.00000000E+00  0.00000000E+00  0.00000000E+00
  0.00000000E+00  0.00000000E+00  0.00000000E+00
  0.00000000E+00  0.00000000E+00  0.00000000E+00
  0.00000000E+00  0.00000000E+00  0.00000000E+00
