C  N  Ag                                
   1.00000000000000     
    13.6925691158469771    0.0000000000000000    0.0000000000000000
     0.0000000000000000   10.8104306900633098    0.0000000000000000
     0.0000000000000000    0.0000000000000000   15.0000000000000000
   C    N    Ag
    24    32     3
Direct
  0.0701396465778753  0.3849993124408319  0.2346872519635251
  0.9801740890085325  0.2160559890151003  0.1696432339043573
  0.2292476033985031  0.3929071678030411  0.2045489954476249
  0.8176344723073267  0.5773520976697836  0.1892190329386876
  0.1491612541364722  0.2493394940469814  0.1264894881463635
  0.9064156645733580  0.3833942777088921  0.2284545434426444
  0.5707480023025951  0.3832528839784414  0.2345680898221103
  0.4780749810559625  0.2165465674545312  0.1705185326794978
  0.7300932357359947  0.3917810082914157  0.2034175536154216
  0.3149550325020400  0.5792933721026547  0.1911609491291804
  0.6474593685047209  0.2506334290327481  0.1245096021145593
  0.4048739281391028  0.3848732624826999  0.2309054280009554
  0.8180220049961003  0.8850527137431685  0.0415761096411647
  0.7286726495296596  0.7164584501613618  0.1087276532053271
  0.9773316571268382  0.8943974396114062  0.0723537298993902
  0.0680426785910523  0.0773562791183951  0.0876039382143495
  0.8976731719944930  0.7498369973836106  0.1499007347024187
  0.6539981998217264  0.8842809909550657  0.0492146518854444
  0.3174641988277046  0.8843108806307598  0.0398735580906406
  0.2269514885857545  0.7148297668849747  0.1061016372352528
  0.4764158877800377  0.8965536084324895  0.0723320585246013
  0.5658973643508641  0.0791352490353397  0.0872616633152749
  0.3929153051184328  0.7544750418213630  0.1534116206599970
  0.1537683504077505  0.8825138589525771  0.0463938051885143
  0.9871004837284685  0.4381308629222283  0.2596009322211435
  0.8988700628088454  0.2644453728439540  0.2029233880276372
  0.1582180813712540  0.4243859245462252  0.2607499363382837
  0.1481137449846983  0.1466845504135259  0.0779678315625126
  0.9846440848521031  0.1061051556101750  0.1300170265789245
  0.2291840630025738  0.3190777513362892  0.1341119890308972
  0.0664404470342628  0.2859116845080854  0.1743334363621060
  0.8205431777759417  0.4543581079695927  0.2202652513602167
  0.4883302826689578  0.4369996754287099  0.2628144936495352
  0.3984252643601646  0.2658820562671661  0.2049271215849941
  0.6583288357599852  0.4233001579298027  0.2597277407312084
  0.6449793375182864  0.1492798261331088  0.0749670377026762
  0.4833307727768775  0.1058555094682950  0.1319277040905090
  0.7282950291053637  0.3180920811404461  0.1329068812735547
  0.5648783889826414  0.2872959290220501  0.1729536989199454
  0.3201925732820418  0.4564697114806660  0.2217215183693363
  0.7346029432143870  0.9376772106932555  0.0169389180460451
  0.6462070708102152  0.7668883290757904  0.0791913476838817
  0.9059634415056552  0.9262356551009390  0.0167051169972510
  0.8967975684855495  0.6476227197716313  0.1991898285348016
  0.7329075005989557  0.6067201115484838  0.1489484513076082
  0.9770218846863545  0.8203093121094289  0.1430563187995607
  0.8152500520041519  0.7843217437190562  0.1008341404325317
  0.5681535655794606  0.9558783212676121  0.0561095883257565
  0.2351052496871126  0.9360187276990198  0.0139228266375652
  0.1462031402627109  0.7636612649299175  0.0729340487121440
  0.4065516468455617  0.9229989955683346  0.0148859214333994
  0.3922065429907719  0.6546375247354546  0.2048894412819383
  0.2327447921494097  0.6054560016071154  0.1466704026891689
  0.4712914170488384  0.8283379496457489  0.1474636996947438
  0.3134968508588759  0.7852556569834541  0.1009679475516532
  0.0690234106178580  0.9551076375764069  0.0551419954321409
  0.5640579686846220  0.8354854682849107  0.2679849952987034
  0.6379569087952003  0.7845296475301858  0.4251244847239165
  0.5356140596633150  0.6100426170703191  0.3374283183330642
 
  0.00000000E+00  0.00000000E+00  0.00000000E+00
  0.00000000E+00  0.00000000E+00  0.00000000E+00
  0.00000000E+00  0.00000000E+00  0.00000000E+00
  0.00000000E+00  0.00000000E+00  0.00000000E+00
  0.00000000E+00  0.00000000E+00  0.00000000E+00
  0.00000000E+00  0.00000000E+00  0.00000000E+00
  0.00000000E+00  0.00000000E+00  0.00000000E+00
  0.00000000E+00  0.00000000E+00  0.00000000E+00
  0.00000000E+00  0.00000000E+00  0.00000000E+00
  0.00000000E+00  0.00000000E+00  0.00000000E+00
  0.00000000E+00  0.00000000E+00  0.00000000E+00
  0.00000000E+00  0.00000000E+00  0.00000000E+00
  0.00000000E+00  0.00000000E+00  0.00000000E+00
  0.00000000E+00  0.00000000E+00  0.00000000E+00
  0.00000000E+00  0.00000000E+00  0.00000000E+00
  0.00000000E+00  0.00000000E+00  0.00000000E+00
  0.00000000E+00  0.00000000E+00  0.00000000E+00
  0.00000000E+00  0.00000000E+00  0.00000000E+00
  0.00000000E+00  0.00000000E+00  0.00000000E+00
  0.00000000E+00  0.00000000E+00  0.00000000E+00
  0.00000000E+00  0.00000000E+00  0.00000000E+00
  0.00000000E+00  0.00000000E+00  0.00000000E+00
  0.00000000E+00  0.00000000E+00  0.00000000E+00
  0.00000000E+00  0.00000000E+00  0.00000000E+00
  0.00000000E+00  0.00000000E+00  0.00000000E+00
  0.00000000E+00  0.00000000E+00  0.00000000E+00
  0.00000000E+00  0.00000000E+00  0.00000000E+00
  0.00000000E+00  0.00000000E+00  0.00000000E+00
  0.00000000E+00  0.00000000E+00  0.00000000E+00
  0.00000000E+00  0.00000000E+00  0.00000000E+00
  0.00000000E+00  0.00000000E+00  0.00000000E+00
  0.00000000E+00  0.00000000E+00  0.00000000E+00
  0.00000000E+00  0.00000000E+00  0.00000000E+00
  0.00000000E+00  0.00000000E+00  0.00000000E+00
  0.00000000E+00  0.00000000E+00  0.00000000E+00
  0.00000000E+00  0.00000000E+00  0.00000000E+00
  0.00000000E+00  0.00000000E+00  0.00000000E+00
  0.00000000E+00  0.00000000E+00  0.00000000E+00
  0.00000000E+00  0.00000000E+00  0.00000000E+00
  0.00000000E+00  0.00000000E+00  0.00000000E+00
  0.00000000E+00  0.00000000E+00  0.00000000E+00
  0.00000000E+00  0.00000000E+00  0.00000000E+00
  0.00000000E+00  0.00000000E+00  0.00000000E+00
  0.00000000E+00  0.00000000E+00  0.00000000E+00
  0.00000000E+00  0.00000000E+00  0.00000000E+00
  0.00000000E+00  0.00000000E+00  0.00000000E+00
  0.00000000E+00  0.00000000E+00  0.00000000E+00
  0.00000000E+00  0.00000000E+00  0.00000000E+00
  0.00000000E+00  0.00000000E+00  0.00000000E+00
  0.00000000E+00  0.00000000E+00  0.00000000E+00
  0.00000000E+00  0.00000000E+00  0.00000000E+00
  0.00000000E+00  0.00000000E+00  0.00000000E+00
  0.00000000E+00  0.00000000E+00  0.00000000E+00
  0.00000000E+00  0.00000000E+00  0.00000000E+00
  0.00000000E+00  0.00000000E+00  0.00000000E+00
  0.00000000E+00  0.00000000E+00  0.00000000E+00
  0.00000000E+00  0.00000000E+00  0.00000000E+00
  0.00000000E+00  0.00000000E+00  0.00000000E+00
  0.00000000E+00  0.00000000E+00  0.00000000E+00
