C  N  Ag Cu                             
   1.00000000000000     
    13.7153618378802253    0.0000000000000000    0.0000000000000000
     0.0000000000000000   10.8073672572604700    0.0000000000000000
     0.0000000000000000    0.0000000000000000   15.0000000000000000
   C    N    Ag   Cu
    24    32     2     1
Direct
  0.0714934290160538  0.3881100200209804  0.2335939842599178
  0.9812892030612521  0.2179995663309805  0.1702161685085076
  0.2299003613439096  0.3966263301704207  0.2015657715152763
  0.8197233677333263  0.5801959147630260  0.1888912724304101
  0.1494823759969643  0.2513344989299787  0.1255897226217181
  0.9083179545814537  0.3857750356519882  0.2293727601069705
  0.5711577087408427  0.3909837632764358  0.2331873320947329
  0.4796859977971142  0.2216339395349732  0.1713117023954632
  0.7327299972592308  0.3949142616706578  0.2051570816109477
  0.3122876174503830  0.5848705994033316  0.1887083338026275
  0.6496194739004247  0.2532553627294483  0.1269847669226597
  0.4055292689793475  0.3919449803293332  0.2266229085506963
  0.8177122832118370  0.8880324326429077  0.0415000987162127
  0.7291656361413726  0.7192053247607855  0.1091644165855294
  0.9775679999341456  0.8968537042080081  0.0693338609123436
  0.0675540294481516  0.0802432898087377  0.0862663017551997
  0.8990538168766827  0.7521068333749898  0.1479007226716579
  0.6539018133146773  0.8867305764657840  0.0511984602476689
  0.3177389655769305  0.8925119901705272  0.0403482724351019
  0.2268516582343070  0.7206038909229503  0.1019641439231090
  0.4763312687088579  0.9000899534412733  0.0748224162149512
  0.5674499154815661  0.0815944151290348  0.0903533136619800
  0.3909345107902387  0.7637208096742699  0.1544011705959014
  0.1540895630701434  0.8879478100951725  0.0425072936302746
  0.9888911011924543  0.4413520968437173  0.2592948538968157
  0.9004491377626893  0.2669501125652626  0.2039184488735072
  0.1593332480310024  0.4295858787150698  0.2576520151882294
  0.1474351701956050  0.1494457303664171  0.0764029538520855
  0.9849018664734467  0.1083519205054735  0.1299787282693707
  0.2295488217183171  0.3208663436628749  0.1322941514954793
  0.0674941635509892  0.2875730146504134  0.1745805522533370
  0.8223331323470001  0.4573958972980023  0.2226096781820915
  0.4885398038618975  0.4483139501915798  0.2559935223744392
  0.3996036513804984  0.2717071416790930  0.2045025408838206
  0.6595994547264230  0.4273442981358491  0.2606423099533227
  0.6474829127776173  0.1508054564639184  0.0791284159524601
  0.4846157392558236  0.1107634769453752  0.1335043096848409
  0.7304046682696023  0.3209831409686186  0.1351914950010565
  0.5665540246937008  0.2921446394885995  0.1738392639064934
  0.3199606160944599  0.4617270347769585  0.2178592352148940
  0.7340418819525514  0.9405090354690574  0.0181660028547698
  0.6467534015742672  0.7685258305217504  0.0796991290445139
  0.9052190729983117  0.9292862417614571  0.0151543538293160
  0.8991704070291160  0.6497882464886903  0.1973139916762055
  0.7347198990088277  0.6088836514203007  0.1493393127204807
  0.9784918804072860  0.8216270934644814  0.1394571420934570
  0.8156772969437175  0.7872835007752887  0.1007980641438260
  0.5687867679207164  0.9587536128540355  0.0591086757235978
  0.2354601523074634  0.9430527161324452  0.0124223771726337
  0.1470167059314200  0.7678285042347520  0.0666009599365556
  0.4070036370703171  0.9316408202913050  0.0174327341096299
  0.3853121135943713  0.6647635329730085  0.2089266003422226
  0.2338926135001792  0.6087565544052123  0.1391870266781253
  0.4722038924434923  0.8285737988750624  0.1475483273761591
  0.3119119195651175  0.7940599533159544  0.1019560890884973
  0.0686514260017169  0.9589071459890792  0.0520129633883508
  0.5594476623180487  0.7880862535967282  0.4029351735348766
  0.6567015624214634  0.5868449087219061  0.3618377636317375
  0.4899828579052488  0.6293225526412882  0.2949262029896006
 
  0.00000000E+00  0.00000000E+00  0.00000000E+00
  0.00000000E+00  0.00000000E+00  0.00000000E+00
  0.00000000E+00  0.00000000E+00  0.00000000E+00
  0.00000000E+00  0.00000000E+00  0.00000000E+00
  0.00000000E+00  0.00000000E+00  0.00000000E+00
  0.00000000E+00  0.00000000E+00  0.00000000E+00
  0.00000000E+00  0.00000000E+00  0.00000000E+00
  0.00000000E+00  0.00000000E+00  0.00000000E+00
  0.00000000E+00  0.00000000E+00  0.00000000E+00
  0.00000000E+00  0.00000000E+00  0.00000000E+00
  0.00000000E+00  0.00000000E+00  0.00000000E+00
  0.00000000E+00  0.00000000E+00  0.00000000E+00
  0.00000000E+00  0.00000000E+00  0.00000000E+00
  0.00000000E+00  0.00000000E+00  0.00000000E+00
  0.00000000E+00  0.00000000E+00  0.00000000E+00
  0.00000000E+00  0.00000000E+00  0.00000000E+00
  0.00000000E+00  0.00000000E+00  0.00000000E+00
  0.00000000E+00  0.00000000E+00  0.00000000E+00
  0.00000000E+00  0.00000000E+00  0.00000000E+00
  0.00000000E+00  0.00000000E+00  0.00000000E+00
  0.00000000E+00  0.00000000E+00  0.00000000E+00
  0.00000000E+00  0.00000000E+00  0.00000000E+00
  0.00000000E+00  0.00000000E+00  0.00000000E+00
  0.00000000E+00  0.00000000E+00  0.00000000E+00
  0.00000000E+00  0.00000000E+00  0.00000000E+00
  0.00000000E+00  0.00000000E+00  0.00000000E+00
  0.00000000E+00  0.00000000E+00  0.00000000E+00
  0.00000000E+00  0.00000000E+00  0.00000000E+00
  0.00000000E+00  0.00000000E+00  0.00000000E+00
  0.00000000E+00  0.00000000E+00  0.00000000E+00
  0.00000000E+00  0.00000000E+00  0.00000000E+00
  0.00000000E+00  0.00000000E+00  0.00000000E+00
  0.00000000E+00  0.00000000E+00  0.00000000E+00
  0.00000000E+00  0.00000000E+00  0.00000000E+00
  0.00000000E+00  0.00000000E+00  0.00000000E+00
  0.00000000E+00  0.00000000E+00  0.00000000E+00
  0.00000000E+00  0.00000000E+00  0.00000000E+00
  0.00000000E+00  0.00000000E+00  0.00000000E+00
  0.00000000E+00  0.00000000E+00  0.00000000E+00
  0.00000000E+00  0.00000000E+00  0.00000000E+00
  0.00000000E+00  0.00000000E+00  0.00000000E+00
  0.00000000E+00  0.00000000E+00  0.00000000E+00
  0.00000000E+00  0.00000000E+00  0.00000000E+00
  0.00000000E+00  0.00000000E+00  0.00000000E+00
  0.00000000E+00  0.00000000E+00  0.00000000E+00
  0.00000000E+00  0.00000000E+00  0.00000000E+00
  0.00000000E+00  0.00000000E+00  0.00000000E+00
  0.00000000E+00  0.00000000E+00  0.00000000E+00
  0.00000000E+00  0.00000000E+00  0.00000000E+00
  0.00000000E+00  0.00000000E+00  0.00000000E+00
  0.00000000E+00  0.00000000E+00  0.00000000E+00
  0.00000000E+00  0.00000000E+00  0.00000000E+00
  0.00000000E+00  0.00000000E+00  0.00000000E+00
  0.00000000E+00  0.00000000E+00  0.00000000E+00
  0.00000000E+00  0.00000000E+00  0.00000000E+00
  0.00000000E+00  0.00000000E+00  0.00000000E+00
  0.00000000E+00  0.00000000E+00  0.00000000E+00
  0.00000000E+00  0.00000000E+00  0.00000000E+00
  0.00000000E+00  0.00000000E+00  0.00000000E+00
