C  N  Au Cu Pd                          
   1.00000000000000     
    13.6946070962307900    0.0000000000000000    0.0000000000000000
     0.0000000000000000   10.8591041161143682    0.0000000000000000
     0.0000000000000000    0.0000000000000000   15.0000000000000000
   C    N    Au   Cu   Pd
    24    32     1     1     1
Direct
  0.0711371466156742  0.3881201268707956  0.2287773356297843
  0.9803503867703321  0.2195691595227557  0.1657173537003269
  0.2300987934746744  0.3955232405025250  0.1975087475195311
  0.8184627361810348  0.5813942382931104  0.1885516050741130
  0.1492902233187394  0.2506060945626546  0.1220068181515662
  0.9075374826582601  0.3869916683141943  0.2248378486135230
  0.5696998777255673  0.3931051179069631  0.2332252134399637
  0.4781925552405837  0.2225685451266321  0.1763115840965577
  0.7310590168252240  0.3967710778052567  0.2039101934953952
  0.3117697711824560  0.5843806013537898  0.1865263723650216
  0.6457403307154238  0.2575270820553902  0.1257047882696247
  0.4051592623398763  0.3941912327717641  0.2275040839902155
  0.8158295907703906  0.8899816724125699  0.0449208831069321
  0.7272560738727839  0.7221848552893551  0.1119026911068714
  0.9763452268044504  0.8966950606083141  0.0700739670836670
  0.0665694251832009  0.0802851278944150  0.0837235755090784
  0.8979641435064476  0.7529608012583420  0.1491159775410529
  0.6518735058276517  0.8900871636345747  0.0556770697046118
  0.3166649623959425  0.8918809501710258  0.0413722698526525
  0.2256614182349685  0.7210955669427689  0.1019236099853478
  0.4743936279463987  0.9027938159362744  0.0786268368387372
  0.5647214646645015  0.0847348943755703  0.0929189456353191
  0.3900233552275805  0.7625360219085762  0.1543656630100675
  0.1527833793141748  0.8873822383467156  0.0422836069909448
  0.9884399788712259  0.4414640778371964  0.2545526693916452
  0.8992424170691713  0.2693226402314037  0.1982080413929895
  0.1589895379324519  0.4294654120870225  0.2526796492808857
  0.1464753286617491  0.1487838323730379  0.0729375060948299
  0.9838654185139802  0.1092866475907290  0.1269890105149719
  0.2301767138202180  0.3183370498156050  0.1290381525639754
  0.0669895040731829  0.2878712451832320  0.1701317453397961
  0.8213238661848818  0.4582146099848365  0.2201431185120390
  0.4878017201390232  0.4527678973933710  0.2525842359920694
  0.3989897794740915  0.2714319098292775  0.2126009425704323
  0.6596594413631547  0.4269968696150307  0.2619845622347718
  0.6428940206330400  0.1549639843056584  0.0778706835045251
  0.4827494208174058  0.1119419915254968  0.1381821665142583
  0.7258710924272369  0.3265655649517646  0.1318170833047198
  0.5645902581366771  0.2930817680723173  0.1757098303856084
  0.3195128335610648  0.4613533060702308  0.2130338339512485
  0.7320885945773928  0.9436033912887972  0.0228020740667433
  0.6446738315514139  0.7722061360143287  0.0831172084683972
  0.9031767423213634  0.9294822126162753  0.0168319806934258
  0.8983404999830151  0.6499868225198975  0.1971252984541086
  0.7330365017961729  0.6111736460426729  0.1500395423424720
  0.9779041810845859  0.8216937428304147  0.1399653416554034
  0.8139232279622041  0.7896605782804250  0.1037203320786139
  0.5666174276736181  0.9615923304889014  0.0630033338368522
  0.2342710029115510  0.9426147640122423  0.0132911671586931
  0.1454763077293914  0.7682008386115389  0.0661202517801301
  0.4058683499322381  0.9325739169218326  0.0197546421848645
  0.3862864909516692  0.6612120311903177  0.2054239346539221
  0.2311901264899619  0.6104705755060845  0.1400016035963819
  0.4698359131366686  0.8315258739503790  0.1507066283592953
  0.3109905992785008  0.7930009925760657  0.1014350507712772
  0.0673248191924833  0.9581599498819111  0.0512337850249806
  0.6178334461091446  0.7514926785805447  0.4186697292658799
  0.6633632998255634  0.5602451426648675  0.3475113952661480
  0.4988044288925380  0.6349786059869813  0.3064740695693979
 
  0.00000000E+00  0.00000000E+00  0.00000000E+00
  0.00000000E+00  0.00000000E+00  0.00000000E+00
  0.00000000E+00  0.00000000E+00  0.00000000E+00
  0.00000000E+00  0.00000000E+00  0.00000000E+00
  0.00000000E+00  0.00000000E+00  0.00000000E+00
  0.00000000E+00  0.00000000E+00  0.00000000E+00
  0.00000000E+00  0.00000000E+00  0.00000000E+00
  0.00000000E+00  0.00000000E+00  0.00000000E+00
  0.00000000E+00  0.00000000E+00  0.00000000E+00
  0.00000000E+00  0.00000000E+00  0.00000000E+00
  0.00000000E+00  0.00000000E+00  0.00000000E+00
  0.00000000E+00  0.00000000E+00  0.00000000E+00
  0.00000000E+00  0.00000000E+00  0.00000000E+00
  0.00000000E+00  0.00000000E+00  0.00000000E+00
  0.00000000E+00  0.00000000E+00  0.00000000E+00
  0.00000000E+00  0.00000000E+00  0.00000000E+00
  0.00000000E+00  0.00000000E+00  0.00000000E+00
  0.00000000E+00  0.00000000E+00  0.00000000E+00
  0.00000000E+00  0.00000000E+00  0.00000000E+00
  0.00000000E+00  0.00000000E+00  0.00000000E+00
  0.00000000E+00  0.00000000E+00  0.00000000E+00
  0.00000000E+00  0.00000000E+00  0.00000000E+00
  0.00000000E+00  0.00000000E+00  0.00000000E+00
  0.00000000E+00  0.00000000E+00  0.00000000E+00
  0.00000000E+00  0.00000000E+00  0.00000000E+00
  0.00000000E+00  0.00000000E+00  0.00000000E+00
  0.00000000E+00  0.00000000E+00  0.00000000E+00
  0.00000000E+00  0.00000000E+00  0.00000000E+00
  0.00000000E+00  0.00000000E+00  0.00000000E+00
  0.00000000E+00  0.00000000E+00  0.00000000E+00
  0.00000000E+00  0.00000000E+00  0.00000000E+00
  0.00000000E+00  0.00000000E+00  0.00000000E+00
  0.00000000E+00  0.00000000E+00  0.00000000E+00
  0.00000000E+00  0.00000000E+00  0.00000000E+00
  0.00000000E+00  0.00000000E+00  0.00000000E+00
  0.00000000E+00  0.00000000E+00  0.00000000E+00
  0.00000000E+00  0.00000000E+00  0.00000000E+00
  0.00000000E+00  0.00000000E+00  0.00000000E+00
  0.00000000E+00  0.00000000E+00  0.00000000E+00
  0.00000000E+00  0.00000000E+00  0.00000000E+00
  0.00000000E+00  0.00000000E+00  0.00000000E+00
  0.00000000E+00  0.00000000E+00  0.00000000E+00
  0.00000000E+00  0.00000000E+00  0.00000000E+00
  0.00000000E+00  0.00000000E+00  0.00000000E+00
  0.00000000E+00  0.00000000E+00  0.00000000E+00
  0.00000000E+00  0.00000000E+00  0.00000000E+00
  0.00000000E+00  0.00000000E+00  0.00000000E+00
  0.00000000E+00  0.00000000E+00  0.00000000E+00
  0.00000000E+00  0.00000000E+00  0.00000000E+00
  0.00000000E+00  0.00000000E+00  0.00000000E+00
  0.00000000E+00  0.00000000E+00  0.00000000E+00
  0.00000000E+00  0.00000000E+00  0.00000000E+00
  0.00000000E+00  0.00000000E+00  0.00000000E+00
  0.00000000E+00  0.00000000E+00  0.00000000E+00
  0.00000000E+00  0.00000000E+00  0.00000000E+00
  0.00000000E+00  0.00000000E+00  0.00000000E+00
  0.00000000E+00  0.00000000E+00  0.00000000E+00
  0.00000000E+00  0.00000000E+00  0.00000000E+00
  0.00000000E+00  0.00000000E+00  0.00000000E+00
