C  N  Cu Pd                             
   1.00000000000000     
    13.6884555305886177    0.0000000000000000    0.0000000000000000
     0.0000000000000000   10.7841167665071147    0.0000000000000000
     0.0000000000000000    0.0000000000000000   15.0000000000000000
   C    N    Cu   Pd
    24    32     2     1
Direct
  0.0695402087832041  0.3736550663304794  0.2324610817051746
  0.9770870195957765  0.2096997557308881  0.1618211471417202
  0.2268645590643832  0.3891119315656066  0.1950009495876382
  0.8352304294450648  0.5815918176824183  0.2144036857773204
  0.1458241101399894  0.2453496898405000  0.1174786993710260
  0.9059888832214790  0.3728279697191735  0.2315757432257084
  0.5661480405032348  0.4037549141047932  0.2367584678105274
  0.4767440544450607  0.2286341970715497  0.1814600970631590
  0.7295744508103328  0.4044409220394047  0.2113835020592842
  0.3048673003462972  0.5814535823764756  0.1755365242806579
  0.6452386530583907  0.2644813477368554  0.1325767558252275
  0.4005319067891704  0.3996226524017386  0.2302023376091274
  0.8188410769455525  0.8714975239258426  0.0468460117254393
  0.7449695064634650  0.7469548785500680  0.1634689755263516
  0.9820610907697507  0.8819917344155784  0.0569581731375108
  0.0634597685416412  0.0754809941869190  0.0739737554575717
  0.9168957541122701  0.7319081426922579  0.1422161694698136
  0.6599472853208019  0.8957736051605932  0.0854126300942120
  0.3199467511092365  0.8972353940935178  0.0370496490277272
  0.2263749296581104  0.7164524425373074  0.0832742614923652
  0.4763482426184298  0.9066378526980757  0.0838421007303359
  0.5664203936695336  0.0874536095185222  0.1039497401035897
  0.3823619777001582  0.7610287738099644  0.1511908740082669
  0.1565002166095722  0.8879015544822455  0.0262846032895083
  0.9881986630397122  0.4209254156409100  0.2656477064351679
  0.8962878684003726  0.2587840240226018  0.1958737888202599
  0.1577333759486141  0.4188311667829547  0.2530813948030525
  0.1420398868140432  0.1473227735369473  0.0639571004430941
  0.9811373858699898  0.1004075846488534  0.1191821630197384
  0.2269429670929094  0.3131136731449634  0.1255043990036431
  0.0644489025543883  0.2778468242849536  0.1690144061858213
  0.8243624255581465  0.4532769604150474  0.2324074017701432
  0.4823874583682625  0.4597880385555295  0.2587330804021299
  0.3968521214595914  0.2756003189783481  0.2170180374195176
  0.6556654906468180  0.4389951387507504  0.2656601848149595
  0.6452058055545292  0.1576638059880159  0.0890746257088168
  0.4835990721008334  0.1156008132398367  0.1471817733158805
  0.7258210170243702  0.3338773995766871  0.1391765873176531
  0.5618137561793559  0.3035870404934789  0.1785459866295087
  0.3140991912868438  0.4614500065590095  0.2085425228870764
  0.7310899813643285  0.9206813007025607  0.0281483044720863
  0.6643419048479885  0.8168719853449402  0.1560093975741181
  0.9014099688626872  0.9137579467514707  0.0116472475661935
  0.9207496516869321  0.6277542527398589  0.1889328891174241
  0.7518573396589929  0.6518093716976876  0.2202259493029096
  0.9939959587522970  0.7993566050831485  0.1217673687239172
  0.8245171113683163  0.7752609971904232  0.1109226045538855
  0.5700725958073377  0.9633861595543886  0.0763320137812581
  0.2392374358453191  0.9489576414035137  0.0061419138255970
  0.1510686477741295  0.7637653067299136  0.0399860321207400
  0.4112570862312755  0.9386165187042969  0.0225910705064568
  0.3762485926983531  0.6595311630682350  0.1998747030897338
  0.2294873029497690  0.6035660341155629  0.1208106726591691
  0.4623654527047870  0.8327159318816448  0.1551537313273813
  0.3096670644451796  0.7930981321535345  0.0929458937697197
  0.0682766883645169  0.9534485367690190  0.0373269906799612
  0.5590317764660420  0.7827211107165424  0.2464320746251811
  0.6506003900191846  0.6205784592702420  0.3105169968813932
  0.4775239324072462  0.6212005995283737  0.3436846924138049
 
  0.00000000E+00  0.00000000E+00  0.00000000E+00
  0.00000000E+00  0.00000000E+00  0.00000000E+00
  0.00000000E+00  0.00000000E+00  0.00000000E+00
  0.00000000E+00  0.00000000E+00  0.00000000E+00
  0.00000000E+00  0.00000000E+00  0.00000000E+00
  0.00000000E+00  0.00000000E+00  0.00000000E+00
  0.00000000E+00  0.00000000E+00  0.00000000E+00
  0.00000000E+00  0.00000000E+00  0.00000000E+00
  0.00000000E+00  0.00000000E+00  0.00000000E+00
  0.00000000E+00  0.00000000E+00  0.00000000E+00
  0.00000000E+00  0.00000000E+00  0.00000000E+00
  0.00000000E+00  0.00000000E+00  0.00000000E+00
  0.00000000E+00  0.00000000E+00  0.00000000E+00
  0.00000000E+00  0.00000000E+00  0.00000000E+00
  0.00000000E+00  0.00000000E+00  0.00000000E+00
  0.00000000E+00  0.00000000E+00  0.00000000E+00
  0.00000000E+00  0.00000000E+00  0.00000000E+00
  0.00000000E+00  0.00000000E+00  0.00000000E+00
  0.00000000E+00  0.00000000E+00  0.00000000E+00
  0.00000000E+00  0.00000000E+00  0.00000000E+00
  0.00000000E+00  0.00000000E+00  0.00000000E+00
  0.00000000E+00  0.00000000E+00  0.00000000E+00
  0.00000000E+00  0.00000000E+00  0.00000000E+00
  0.00000000E+00  0.00000000E+00  0.00000000E+00
  0.00000000E+00  0.00000000E+00  0.00000000E+00
  0.00000000E+00  0.00000000E+00  0.00000000E+00
  0.00000000E+00  0.00000000E+00  0.00000000E+00
  0.00000000E+00  0.00000000E+00  0.00000000E+00
  0.00000000E+00  0.00000000E+00  0.00000000E+00
  0.00000000E+00  0.00000000E+00  0.00000000E+00
  0.00000000E+00  0.00000000E+00  0.00000000E+00
  0.00000000E+00  0.00000000E+00  0.00000000E+00
  0.00000000E+00  0.00000000E+00  0.00000000E+00
  0.00000000E+00  0.00000000E+00  0.00000000E+00
  0.00000000E+00  0.00000000E+00  0.00000000E+00
  0.00000000E+00  0.00000000E+00  0.00000000E+00
  0.00000000E+00  0.00000000E+00  0.00000000E+00
  0.00000000E+00  0.00000000E+00  0.00000000E+00
  0.00000000E+00  0.00000000E+00  0.00000000E+00
  0.00000000E+00  0.00000000E+00  0.00000000E+00
  0.00000000E+00  0.00000000E+00  0.00000000E+00
  0.00000000E+00  0.00000000E+00  0.00000000E+00
  0.00000000E+00  0.00000000E+00  0.00000000E+00
  0.00000000E+00  0.00000000E+00  0.00000000E+00
  0.00000000E+00  0.00000000E+00  0.00000000E+00
  0.00000000E+00  0.00000000E+00  0.00000000E+00
  0.00000000E+00  0.00000000E+00  0.00000000E+00
  0.00000000E+00  0.00000000E+00  0.00000000E+00
  0.00000000E+00  0.00000000E+00  0.00000000E+00
  0.00000000E+00  0.00000000E+00  0.00000000E+00
  0.00000000E+00  0.00000000E+00  0.00000000E+00
  0.00000000E+00  0.00000000E+00  0.00000000E+00
  0.00000000E+00  0.00000000E+00  0.00000000E+00
  0.00000000E+00  0.00000000E+00  0.00000000E+00
  0.00000000E+00  0.00000000E+00  0.00000000E+00
  0.00000000E+00  0.00000000E+00  0.00000000E+00
  0.00000000E+00  0.00000000E+00  0.00000000E+00
  0.00000000E+00  0.00000000E+00  0.00000000E+00
  0.00000000E+00  0.00000000E+00  0.00000000E+00
