C  N  Pd                                
   1.00000000000000     
    13.7359627531022959    0.0000000000000000    0.0000000000000000
     0.0000000000000000   10.9606808718952760    0.0000000000000000
     0.0000000000000000    0.0000000000000000   15.0000000000000000
   C    N    Pd
    24    32     1
Direct
  0.0619381604345264  0.4075376033297556  0.0302732355322180
  0.9740334417371599  0.2227172672379113  0.0715584949445719
  0.2261202268643654  0.4015450685272441  0.0397308563211833
  0.8143820687941717  0.5791055963056332  0.1002094573900260
  0.1504842812038574  0.2246056078189013  0.0731254477634442
  0.8985049766413750  0.3993312994599246  0.0421666479723873
  0.5617223307207236  0.3906169853648319  0.0615369765397721
  0.4745588984642468  0.2523873332647752  0.1626733955185563
  0.7244765227341696  0.3920661890290937  0.0764672558649141
  0.3250198386794037  0.5832854748834306  0.0842500754247656
  0.6490202203446801  0.2515081640768586  0.1614748857787994
  0.4000815371230534  0.3870249139561885  0.0734724727057473
  0.8184922346274092  0.9024225694930050  0.2274213965155478
  0.7320599687708129  0.7515457666578769  0.1412423658311647
  0.9810509866741242  0.8993462231747991  0.2072937532860565
  0.9042158677856915  0.7262484365174595  0.1692247972750209
  0.6554556089657826  0.9047092290509342  0.2130078625190212
  0.3130574573657946  0.8930553748966223  0.2290243598341121
  0.2436237501044445  0.7579099932353304  0.1161252387324573
  0.4774744686317250  0.8912010195649723  0.2340618427773126
  0.4064105286783405  0.7254448507143122  0.1706314307773666
  0.1582484743543834  0.9059482288504573  0.1827423109127124
  0.0614631917229457  0.0712175128787211  0.1332450991205317
  0.5612738518598279  0.0936391163357109  0.2168013294657073
  0.9769485041147140  0.4640702117825060  0.0194753323281306
  0.8914311376704144  0.2783719089701218  0.0515735725218403
  0.1467219613840151  0.4656788060526812  0.0202119748331050
  0.1493421560927186  0.1143304075535033  0.1105013610123998
  0.9745043586403892  0.1110880956105435  0.1071467270958251
  0.2330018361771068  0.2804629284204093  0.0517568444669135
  0.0620850657129139  0.2868418488507805  0.0622342418416232
  0.8120954039234548  0.4627234326560881  0.0610893797159262
  0.4739551925579724  0.4099977352088464  0.0193745918913704
  0.3940427703972172  0.3157407985939943  0.1457332250781562
  0.6502232133061162  0.4186182902757965  0.0231423251155976
  0.6481172309320713  0.1457460569204380  0.2059084612647967
  0.4746164172074274  0.1465171794152397  0.2072387184494112
  0.7298877581148925  0.3140590177926682  0.1449662369916800
  0.5617829614756927  0.2968361463100211  0.1281697845921314
  0.3160436831096019  0.4623756917963822  0.0551922802001126
  0.7327908055810325  0.9429710897693659  0.2585229345745235
  0.6527444699693131  0.8211086494741835  0.1479736830140192
  0.9031248294691532  0.9589867037262408  0.2388069865159604
  0.8988201151544571  0.6141403081902396  0.1353541064281036
  0.7290663419660065  0.6420557958910328  0.1015464547043802
  0.9876803591780544  0.7791077435016430  0.1912137759799308
  0.8181340771076669  0.7943534338845298  0.1770040761663725
  0.5634140616431716  0.9629653873642308  0.2333307972827015
  0.2235973807933282  0.9382807862070252  0.2437890505774461
  0.1648006608923233  0.8285723899976538  0.1148807517009279
  0.3941101618032914  0.9432020219915949  0.2605062006055808
  0.4087396705003865  0.6164620406575948  0.1283060686315611
  0.2491623672279586  0.6558161782089287  0.0694729992046480
  0.4852046880196559  0.7737269120512033  0.2076843542183437
  0.3205563680247136  0.7917268367616596  0.1718035334694294
  0.0650955904387524  0.9674488203397568  0.1876624013531314
  0.5671459511244756  0.5726991025539055  0.1068757793705637
 
  0.00000000E+00  0.00000000E+00  0.00000000E+00
  0.00000000E+00  0.00000000E+00  0.00000000E+00
  0.00000000E+00  0.00000000E+00  0.00000000E+00
  0.00000000E+00  0.00000000E+00  0.00000000E+00
  0.00000000E+00  0.00000000E+00  0.00000000E+00
  0.00000000E+00  0.00000000E+00  0.00000000E+00
  0.00000000E+00  0.00000000E+00  0.00000000E+00
  0.00000000E+00  0.00000000E+00  0.00000000E+00
  0.00000000E+00  0.00000000E+00  0.00000000E+00
  0.00000000E+00  0.00000000E+00  0.00000000E+00
  0.00000000E+00  0.00000000E+00  0.00000000E+00
  0.00000000E+00  0.00000000E+00  0.00000000E+00
  0.00000000E+00  0.00000000E+00  0.00000000E+00
  0.00000000E+00  0.00000000E+00  0.00000000E+00
  0.00000000E+00  0.00000000E+00  0.00000000E+00
  0.00000000E+00  0.00000000E+00  0.00000000E+00
  0.00000000E+00  0.00000000E+00  0.00000000E+00
  0.00000000E+00  0.00000000E+00  0.00000000E+00
  0.00000000E+00  0.00000000E+00  0.00000000E+00
  0.00000000E+00  0.00000000E+00  0.00000000E+00
  0.00000000E+00  0.00000000E+00  0.00000000E+00
  0.00000000E+00  0.00000000E+00  0.00000000E+00
  0.00000000E+00  0.00000000E+00  0.00000000E+00
  0.00000000E+00  0.00000000E+00  0.00000000E+00
  0.00000000E+00  0.00000000E+00  0.00000000E+00
  0.00000000E+00  0.00000000E+00  0.00000000E+00
  0.00000000E+00  0.00000000E+00  0.00000000E+00
  0.00000000E+00  0.00000000E+00  0.00000000E+00
  0.00000000E+00  0.00000000E+00  0.00000000E+00
  0.00000000E+00  0.00000000E+00  0.00000000E+00
  0.00000000E+00  0.00000000E+00  0.00000000E+00
  0.00000000E+00  0.00000000E+00  0.00000000E+00
  0.00000000E+00  0.00000000E+00  0.00000000E+00
  0.00000000E+00  0.00000000E+00  0.00000000E+00
  0.00000000E+00  0.00000000E+00  0.00000000E+00
  0.00000000E+00  0.00000000E+00  0.00000000E+00
  0.00000000E+00  0.00000000E+00  0.00000000E+00
  0.00000000E+00  0.00000000E+00  0.00000000E+00
  0.00000000E+00  0.00000000E+00  0.00000000E+00
  0.00000000E+00  0.00000000E+00  0.00000000E+00
  0.00000000E+00  0.00000000E+00  0.00000000E+00
  0.00000000E+00  0.00000000E+00  0.00000000E+00
  0.00000000E+00  0.00000000E+00  0.00000000E+00
  0.00000000E+00  0.00000000E+00  0.00000000E+00
  0.00000000E+00  0.00000000E+00  0.00000000E+00
  0.00000000E+00  0.00000000E+00  0.00000000E+00
  0.00000000E+00  0.00000000E+00  0.00000000E+00
  0.00000000E+00  0.00000000E+00  0.00000000E+00
  0.00000000E+00  0.00000000E+00  0.00000000E+00
  0.00000000E+00  0.00000000E+00  0.00000000E+00
  0.00000000E+00  0.00000000E+00  0.00000000E+00
  0.00000000E+00  0.00000000E+00  0.00000000E+00
  0.00000000E+00  0.00000000E+00  0.00000000E+00
  0.00000000E+00  0.00000000E+00  0.00000000E+00
  0.00000000E+00  0.00000000E+00  0.00000000E+00
  0.00000000E+00  0.00000000E+00  0.00000000E+00
  0.00000000E+00  0.00000000E+00  0.00000000E+00
