C  N  Au Cu                             
   1.00000000000000     
    12.9282557903525426    0.0000000000000000    0.0000000000000000
     0.0000000000000000   11.5456268859308935    0.0000000000000000
     0.0000000000000000    0.0000000000000000   15.0000000000000000
   C    N    Au   Cu
    24    32     1     2
Direct
  0.0423665069636451  0.3964323450799140  0.1160888790193241
  0.9951774512136607  0.2440233646200775  0.2238318379777457
  0.2077074212491943  0.3954763737705909  0.0678409248691463
  0.8008012810789088  0.5807774248058369  0.2275496957308383
  0.1586749935876859  0.2376919453991268  0.1461274879052994
  0.8958934944593477  0.4011871865156634  0.1984692285638388
  0.5430993764440244  0.3929420744551551  0.1316481640225113
  0.4944697765642861  0.2396778497559610  0.0273034584535749
  0.7122542205493553  0.4002578958932526  0.1784413582289694
  0.2995865370231038  0.5795580359649861  0.0421812588689968
  0.6644327294024260  0.2420000078955412  0.0987021455148694
  0.3912211944829346  0.3953949394831313  0.0503385567908493
  0.8478962938810605  0.8955830520802972  0.1303542793350200
  0.7281093584032658  0.7477867603615045  0.1753307165499525
 -0.0014334405521678  0.8991891175928951  0.2067898962336682
  0.0921196261440544  0.0806377450366191  0.2137897650844100
  0.9036119476227631  0.7391349267840067  0.2310392751439406
  0.6801907954032850  0.8987404775378109  0.0887503480436504
  0.3466971170010234  0.8970793752383344  0.1383216045149256
  0.2303855161564306  0.7392676216471040  0.1057848587808234
  0.4977307432770013  0.8990212462466154  0.0624679248519618
  0.5938582899539211  0.0787565342387239  0.0430860772310038
  0.3994413818781715  0.7411627052379356  0.0361429905363434
  0.1810205535261688  0.8969310977549477  0.1844579301494791
  0.9503739484907184  0.4463201124366148  0.1313695973318261
  0.9134797196505867  0.3085939838345052  0.2489406855876058
  0.1125772712712752  0.4406901263069090  0.0603122379496537
  0.1700166534638524  0.1286110324483228  0.1693744943913854
  0.0106855756567840  0.1355000920660836  0.2512634632124918
  0.2340440134618522  0.2959347362281520  0.1062022712408955
  0.0650048646650895  0.2939407068451828  0.1627219372076926
  0.7969164659645070  0.4612644517081967  0.2144651784986483
  0.4470342516702668  0.4368259780299494  0.1215740112414994
  0.4124264576434006  0.3035553889238627  0.0014685576168928
  0.6131217094578184  0.4413779858110889  0.1861415373626708
  0.6759630791446071  0.1331921929044499  0.0772631103057318
  0.5089872828276135  0.1295267876776434  0.0066342102569496
  0.7388544727417500  0.3032387423698091  0.1376087407335731
  0.5677445342804848  0.2955086874966962  0.0837163497314492
  0.2956866868015258  0.4571236377455244  0.0359033972493199
  0.7757081256734106  0.9394249321112217  0.0766016892172298
  0.6516522762170085  0.8073952876433502  0.1388130395071200
  0.9392288333639067  0.9460415600950760  0.1430895281552988
  0.8909419556595941  0.6280468370776190  0.2520676090164121
  0.7132110617418682  0.6427595736304207  0.2105366828982706
  0.9858090898497356  0.8022818584910131  0.2538581051936918
  0.8275296708137426  0.7925638166785949  0.1765946749459668
  0.5955634720212614  0.9575636088664369  0.0495008406992204
  0.2762061020205610  0.9407684946017618  0.1936621382808594
  0.1545042399159981  0.7986680320635180  0.1435760308964733
  0.4381750431851293  0.9478504859720450  0.1246316977151833
  0.3845680743376759  0.6318713562188161  0.0090663275414119
  0.2198703679930453  0.6288930290815021  0.0837369360781999
  0.4842240737935100  0.8020776580372868  0.0154854418864324
  0.3252331635528335  0.7941681708554088  0.0915562764116146
  0.0952860852212269  0.9589339343067684  0.2191437151005061
  0.4287252226280498  0.6714567496126983  0.3379079795730801
  0.5760745787247025  0.5936664606204664  0.2502626686844974
  0.4031620056887760  0.5378464839034803  0.2159901758791450
 
  0.00000000E+00  0.00000000E+00  0.00000000E+00
  0.00000000E+00  0.00000000E+00  0.00000000E+00
  0.00000000E+00  0.00000000E+00  0.00000000E+00
  0.00000000E+00  0.00000000E+00  0.00000000E+00
  0.00000000E+00  0.00000000E+00  0.00000000E+00
  0.00000000E+00  0.00000000E+00  0.00000000E+00
  0.00000000E+00  0.00000000E+00  0.00000000E+00
  0.00000000E+00  0.00000000E+00  0.00000000E+00
  0.00000000E+00  0.00000000E+00  0.00000000E+00
  0.00000000E+00  0.00000000E+00  0.00000000E+00
  0.00000000E+00  0.00000000E+00  0.00000000E+00
  0.00000000E+00  0.00000000E+00  0.00000000E+00
  0.00000000E+00  0.00000000E+00  0.00000000E+00
  0.00000000E+00  0.00000000E+00  0.00000000E+00
  0.00000000E+00  0.00000000E+00  0.00000000E+00
  0.00000000E+00  0.00000000E+00  0.00000000E+00
  0.00000000E+00  0.00000000E+00  0.00000000E+00
  0.00000000E+00  0.00000000E+00  0.00000000E+00
  0.00000000E+00  0.00000000E+00  0.00000000E+00
  0.00000000E+00  0.00000000E+00  0.00000000E+00
  0.00000000E+00  0.00000000E+00  0.00000000E+00
  0.00000000E+00  0.00000000E+00  0.00000000E+00
  0.00000000E+00  0.00000000E+00  0.00000000E+00
  0.00000000E+00  0.00000000E+00  0.00000000E+00
  0.00000000E+00  0.00000000E+00  0.00000000E+00
  0.00000000E+00  0.00000000E+00  0.00000000E+00
  0.00000000E+00  0.00000000E+00  0.00000000E+00
  0.00000000E+00  0.00000000E+00  0.00000000E+00
  0.00000000E+00  0.00000000E+00  0.00000000E+00
  0.00000000E+00  0.00000000E+00  0.00000000E+00
  0.00000000E+00  0.00000000E+00  0.00000000E+00
  0.00000000E+00  0.00000000E+00  0.00000000E+00
  0.00000000E+00  0.00000000E+00  0.00000000E+00
  0.00000000E+00  0.00000000E+00  0.00000000E+00
  0.00000000E+00  0.00000000E+00  0.00000000E+00
  0.00000000E+00  0.00000000E+00  0.00000000E+00
  0.00000000E+00  0.00000000E+00  0.00000000E+00
  0.00000000E+00  0.00000000E+00  0.00000000E+00
  0.00000000E+00  0.00000000E+00  0.00000000E+00
  0.00000000E+00  0.00000000E+00  0.00000000E+00
  0.00000000E+00  0.00000000E+00  0.00000000E+00
  0.00000000E+00  0.00000000E+00  0.00000000E+00
  0.00000000E+00  0.00000000E+00  0.00000000E+00
  0.00000000E+00  0.00000000E+00  0.00000000E+00
  0.00000000E+00  0.00000000E+00  0.00000000E+00
  0.00000000E+00  0.00000000E+00  0.00000000E+00
  0.00000000E+00  0.00000000E+00  0.00000000E+00
  0.00000000E+00  0.00000000E+00  0.00000000E+00
  0.00000000E+00  0.00000000E+00  0.00000000E+00
  0.00000000E+00  0.00000000E+00  0.00000000E+00
  0.00000000E+00  0.00000000E+00  0.00000000E+00
  0.00000000E+00  0.00000000E+00  0.00000000E+00
  0.00000000E+00  0.00000000E+00  0.00000000E+00
  0.00000000E+00  0.00000000E+00  0.00000000E+00
  0.00000000E+00  0.00000000E+00  0.00000000E+00
  0.00000000E+00  0.00000000E+00  0.00000000E+00
  0.00000000E+00  0.00000000E+00  0.00000000E+00
  0.00000000E+00  0.00000000E+00  0.00000000E+00
  0.00000000E+00  0.00000000E+00  0.00000000E+00
