C  N  Ag Pd                             
   1.00000000000000     
    13.6968582670541359    0.0000000000000000    0.0000000000000000
     0.0000000000000000   10.8810669805011777    0.0000000000000000
     0.0000000000000000    0.0000000000000000   15.0000000000000000
   C    N    Ag   Pd
    24    32     1     2
Direct
  0.0710657995216728  0.3889505547590862  0.2294551804779665
  0.9804553930954176  0.2195342336145818  0.1683000882239008
  0.2298480983352950  0.3963734265099081  0.1977133954221276
  0.8180591473781670  0.5807933916826792  0.1882997316363738
  0.1488939992932541  0.2512404289095727  0.1228845911735885
  0.9074521500119902  0.3873052524200473  0.2256614071596710
  0.5709148871501648  0.3891217416017920  0.2332136827427681
  0.4790437121454826  0.2201344540751629  0.1743262730052248
  0.7315275779242671  0.3957154792238973  0.2044193875950374
  0.3126375095483420  0.5844962020594544  0.1876342528150750
  0.6482215175962529  0.2523361070911994  0.1281338653434631
  0.4052804127814911  0.3920662239890083  0.2248282281635412
  0.8159598215001632  0.8894969365563536  0.0453521323368262
  0.7276797699847399  0.7200516001290234  0.1100616641745898
  0.9758368948235803  0.8976786315485621  0.0730903109655183
  0.0666479706423962  0.0803705597949633  0.0865196933058617
  0.8971562005719892  0.7531208788675823  0.1505953455029993
  0.6520259009011062  0.8874649718955790  0.0541632522290539
  0.3159628596691824  0.8915829135009551  0.0423881793173232
  0.2256780399398425  0.7211190021555589  0.1034633302606605
  0.4742219909315102  0.9015365504944860  0.0779188420629349
  0.5663364483495759  0.0812769607595727  0.0927618642190267
  0.3895912391125671  0.7639885090290811  0.1557910985909958
  0.1520873067523434  0.8873835501347966  0.0452790514100422
  0.9884651505207429  0.4426280950115920  0.2543647845886297
  0.8994963407720065  0.2687383935656857  0.2012324892795575
  0.1591250407575760  0.4299179456265428  0.2533342440988524
  0.1462055633769280  0.1489793104001419  0.0745759127891142
  0.9842678891375629  0.1090708839451795  0.1301490754695582
  0.2294077452602037  0.3198920926962397  0.1288997085170887
  0.0669156200008606  0.2881308727131147  0.1715719653165124
  0.8214304166649701  0.4578182349112001  0.2197861376441741
  0.4880029025146326  0.4494667134286777  0.2498211018512471
  0.3987874365562392  0.2706640325289842  0.2076526879819402
  0.6595871792707451  0.4262767914703309  0.2623348918921078
  0.6458561118884930  0.1495190636906176  0.0806964378756089
  0.4831441799071105  0.1101726248766390  0.1359845348512911
  0.7276400584273528  0.3221671741936217  0.1341662757631591
  0.5663998864714951  0.2881133035672852  0.1771233200694027
  0.3199172790800677  0.4610008746433141  0.2137094590218359
  0.7322161849349808  0.9417433467604720  0.0219686142415654
  0.6448590983371493  0.7698735663420243  0.0812267391615443
  0.9034873266912997  0.9303088912796231  0.0188864301611551
  0.8972068411265253  0.6503278388452503  0.1984601960918773
  0.7338936590236045  0.6087128364921890  0.1469947674633582
  0.9768135127249368  0.8228883046383292  0.1429348541360180
  0.8137756210135989  0.7890048398847960  0.1038508719854044
  0.5668012322572684  0.9591420834321197  0.0615216104008135
  0.2333444942917948  0.9419633817089651  0.0149636068883849
  0.1449110868922305  0.7682260991722625  0.0691665228524483
  0.4051476942529134  0.9310041400741981  0.0195354215773867
  0.3854334499992839  0.6635582482106294  0.2083296301675986
  0.2330990672951668  0.6096447079965756  0.1397597937330281
  0.4699099690892933  0.8312935122583021  0.1506841976823855
  0.3105436074910589  0.7935630431444269  0.1031490791724082
  0.0671777861298829  0.9583105383756840  0.0547358058553243
  0.5995128569400172  0.7947575201754726  0.3913060620378228
  0.6654862863734066  0.5697507328391637  0.3558201162693109
  0.5063076564421759  0.6293207909924675  0.2922254464641723
 
  0.00000000E+00  0.00000000E+00  0.00000000E+00
  0.00000000E+00  0.00000000E+00  0.00000000E+00
  0.00000000E+00  0.00000000E+00  0.00000000E+00
  0.00000000E+00  0.00000000E+00  0.00000000E+00
  0.00000000E+00  0.00000000E+00  0.00000000E+00
  0.00000000E+00  0.00000000E+00  0.00000000E+00
  0.00000000E+00  0.00000000E+00  0.00000000E+00
  0.00000000E+00  0.00000000E+00  0.00000000E+00
  0.00000000E+00  0.00000000E+00  0.00000000E+00
  0.00000000E+00  0.00000000E+00  0.00000000E+00
  0.00000000E+00  0.00000000E+00  0.00000000E+00
  0.00000000E+00  0.00000000E+00  0.00000000E+00
  0.00000000E+00  0.00000000E+00  0.00000000E+00
  0.00000000E+00  0.00000000E+00  0.00000000E+00
  0.00000000E+00  0.00000000E+00  0.00000000E+00
  0.00000000E+00  0.00000000E+00  0.00000000E+00
  0.00000000E+00  0.00000000E+00  0.00000000E+00
  0.00000000E+00  0.00000000E+00  0.00000000E+00
  0.00000000E+00  0.00000000E+00  0.00000000E+00
  0.00000000E+00  0.00000000E+00  0.00000000E+00
  0.00000000E+00  0.00000000E+00  0.00000000E+00
  0.00000000E+00  0.00000000E+00  0.00000000E+00
  0.00000000E+00  0.00000000E+00  0.00000000E+00
  0.00000000E+00  0.00000000E+00  0.00000000E+00
  0.00000000E+00  0.00000000E+00  0.00000000E+00
  0.00000000E+00  0.00000000E+00  0.00000000E+00
  0.00000000E+00  0.00000000E+00  0.00000000E+00
  0.00000000E+00  0.00000000E+00  0.00000000E+00
  0.00000000E+00  0.00000000E+00  0.00000000E+00
  0.00000000E+00  0.00000000E+00  0.00000000E+00
  0.00000000E+00  0.00000000E+00  0.00000000E+00
  0.00000000E+00  0.00000000E+00  0.00000000E+00
  0.00000000E+00  0.00000000E+00  0.00000000E+00
  0.00000000E+00  0.00000000E+00  0.00000000E+00
  0.00000000E+00  0.00000000E+00  0.00000000E+00
  0.00000000E+00  0.00000000E+00  0.00000000E+00
  0.00000000E+00  0.00000000E+00  0.00000000E+00
  0.00000000E+00  0.00000000E+00  0.00000000E+00
  0.00000000E+00  0.00000000E+00  0.00000000E+00
  0.00000000E+00  0.00000000E+00  0.00000000E+00
  0.00000000E+00  0.00000000E+00  0.00000000E+00
  0.00000000E+00  0.00000000E+00  0.00000000E+00
  0.00000000E+00  0.00000000E+00  0.00000000E+00
  0.00000000E+00  0.00000000E+00  0.00000000E+00
  0.00000000E+00  0.00000000E+00  0.00000000E+00
  0.00000000E+00  0.00000000E+00  0.00000000E+00
  0.00000000E+00  0.00000000E+00  0.00000000E+00
  0.00000000E+00  0.00000000E+00  0.00000000E+00
  0.00000000E+00  0.00000000E+00  0.00000000E+00
  0.00000000E+00  0.00000000E+00  0.00000000E+00
  0.00000000E+00  0.00000000E+00  0.00000000E+00
  0.00000000E+00  0.00000000E+00  0.00000000E+00
  0.00000000E+00  0.00000000E+00  0.00000000E+00
  0.00000000E+00  0.00000000E+00  0.00000000E+00
  0.00000000E+00  0.00000000E+00  0.00000000E+00
  0.00000000E+00  0.00000000E+00  0.00000000E+00
  0.00000000E+00  0.00000000E+00  0.00000000E+00
  0.00000000E+00  0.00000000E+00  0.00000000E+00
  0.00000000E+00  0.00000000E+00  0.00000000E+00
