C  N  Ag Cu                             
   1.00000000000000     
    13.7118131080620724    0.0000000000000000    0.0000000000000000
     0.0000000000000000   10.8764266685304314    0.0000000000000000
     0.0000000000000000    0.0000000000000000   15.0000000000000000
   C    N    Ag   Cu
    24    32     1     2
Direct
  0.0712301127776665  0.3889140220640587  0.2308815642172527
  0.9808560444570525  0.2194944802195131  0.1685674831121145
  0.2295109381563528  0.3970748012911869  0.1985406119725882
  0.8198373995996905  0.5811851118792392  0.1893969580777038
  0.1489647122154518  0.2522172808227168  0.1231926291453940
  0.9080569391252159  0.3866193002882554  0.2274819163890518
  0.5699686028846852  0.3918120091212797  0.2320400549363584
  0.4789978854497889  0.2215996431997427  0.1728860391317875
  0.7323674436118336  0.3964291003561438  0.2042954157818377
  0.3118810185452003  0.5846324375820128  0.1874933864192886
  0.6494403432794620  0.2520591181925254  0.1288867643137311
  0.4046004447846495  0.3924823391910354  0.2250105344510873
  0.8172847483045618  0.8888543398632327  0.0446294336201210
  0.7290104351394333  0.7208124916997255  0.1116243853511629
  0.9773676889003684  0.8974494731202733  0.0717649986612588
  0.0672443442316129  0.0809278877300373  0.0862274099331457
  0.8993020227615217  0.7525245802654726  0.1496378667674249
  0.6534620556543798  0.8876516770840017  0.0549286081522094
  0.3172371041140797  0.8931635533382182  0.0426753488942391
  0.2262271876584350  0.7211843215394973  0.1022345846895092
  0.4756108473360047  0.9008623132116107  0.0783274378231235
  0.5670246636219660  0.0810468683922951  0.0936787827281240
  0.3898678049413347  0.7637535443329716  0.1559765326752117
  0.1535811343343131  0.8885625083209441  0.0441417173522888
  0.9888145422054333  0.4416912522620699  0.2571592481916009
  0.9000941858437841  0.2685749996699281  0.2020819933690661
  0.1591659138550529  0.4300231870764205  0.2547136470204524
  0.1468292620540955  0.1500444853516133  0.0749153662943376
  0.9847646938915467  0.1093766128985245  0.1300518665629438
  0.2291797056326345  0.3212814543567598  0.1295164960642815
  0.0669569896943804  0.2890508800357003  0.1718204202260776
  0.8220443420390894  0.4581783179371143  0.2214313807046429
  0.4875033668625651  0.4494314055116078  0.2534120148557643
  0.3986359369558816  0.2722954210247222  0.2048576162344363
  0.6583516562241923  0.4307762527206191  0.2590247749718942
  0.6473940157245680  0.1492203788205133  0.0823619766066399
  0.4838195331115324  0.1109548061144053  0.1360370138040133
  0.7297994580883992  0.3202520224970014  0.1360487136147561
  0.5662816046671195  0.2911504828995566  0.1754784836640157
  0.3194725326295290  0.4616736069091427  0.2149266691192295
  0.7335287546549339  0.9411025534026517  0.0216233645165987
  0.6463210321464741  0.7701863508205079  0.0832515792177365
  0.9046546121890090  0.9300609314904553  0.0182160285914237
  0.8994732535783785  0.6498728055442008  0.1980322586823831
  0.7346754615194050  0.6104934782662115  0.1504731979127266
  0.9787323868343164  0.8218258545627788  0.1414389980996683
  0.8156005475692302  0.7883033323694614  0.1033620000880078
  0.5682668491683389  0.9589548711232644  0.0631215510137978
  0.2351486040574133  0.9435185080532826  0.0145337035420491
  0.1464065917341092  0.7687601801726814  0.0671190108473328
  0.4066359147110253  0.9326068832970407  0.0207227022494669
  0.3845665450747898  0.6639724843234525  0.2090681729995979
  0.2335848880074550  0.6091899452469228  0.1379920293910964
  0.4709482410094440  0.8290544855387435  0.1506273836267225
  0.3110962115505791  0.7944975731195106  0.1034578967239912
  0.0683408124710915  0.9591413944478586  0.0539064756679481
  0.5858697627020258  0.7683104748712556  0.3973948785605320
  0.6524500014509116  0.5739486838519461  0.3382727151131315
  0.4928207480805712  0.6299998310011067  0.2922055487422792
 
  0.00000000E+00  0.00000000E+00  0.00000000E+00
  0.00000000E+00  0.00000000E+00  0.00000000E+00
  0.00000000E+00  0.00000000E+00  0.00000000E+00
  0.00000000E+00  0.00000000E+00  0.00000000E+00
  0.00000000E+00  0.00000000E+00  0.00000000E+00
  0.00000000E+00  0.00000000E+00  0.00000000E+00
  0.00000000E+00  0.00000000E+00  0.00000000E+00
  0.00000000E+00  0.00000000E+00  0.00000000E+00
  0.00000000E+00  0.00000000E+00  0.00000000E+00
  0.00000000E+00  0.00000000E+00  0.00000000E+00
  0.00000000E+00  0.00000000E+00  0.00000000E+00
  0.00000000E+00  0.00000000E+00  0.00000000E+00
  0.00000000E+00  0.00000000E+00  0.00000000E+00
  0.00000000E+00  0.00000000E+00  0.00000000E+00
  0.00000000E+00  0.00000000E+00  0.00000000E+00
  0.00000000E+00  0.00000000E+00  0.00000000E+00
  0.00000000E+00  0.00000000E+00  0.00000000E+00
  0.00000000E+00  0.00000000E+00  0.00000000E+00
  0.00000000E+00  0.00000000E+00  0.00000000E+00
  0.00000000E+00  0.00000000E+00  0.00000000E+00
  0.00000000E+00  0.00000000E+00  0.00000000E+00
  0.00000000E+00  0.00000000E+00  0.00000000E+00
  0.00000000E+00  0.00000000E+00  0.00000000E+00
  0.00000000E+00  0.00000000E+00  0.00000000E+00
  0.00000000E+00  0.00000000E+00  0.00000000E+00
  0.00000000E+00  0.00000000E+00  0.00000000E+00
  0.00000000E+00  0.00000000E+00  0.00000000E+00
  0.00000000E+00  0.00000000E+00  0.00000000E+00
  0.00000000E+00  0.00000000E+00  0.00000000E+00
  0.00000000E+00  0.00000000E+00  0.00000000E+00
  0.00000000E+00  0.00000000E+00  0.00000000E+00
  0.00000000E+00  0.00000000E+00  0.00000000E+00
  0.00000000E+00  0.00000000E+00  0.00000000E+00
  0.00000000E+00  0.00000000E+00  0.00000000E+00
  0.00000000E+00  0.00000000E+00  0.00000000E+00
  0.00000000E+00  0.00000000E+00  0.00000000E+00
  0.00000000E+00  0.00000000E+00  0.00000000E+00
  0.00000000E+00  0.00000000E+00  0.00000000E+00
  0.00000000E+00  0.00000000E+00  0.00000000E+00
  0.00000000E+00  0.00000000E+00  0.00000000E+00
  0.00000000E+00  0.00000000E+00  0.00000000E+00
  0.00000000E+00  0.00000000E+00  0.00000000E+00
  0.00000000E+00  0.00000000E+00  0.00000000E+00
  0.00000000E+00  0.00000000E+00  0.00000000E+00
  0.00000000E+00  0.00000000E+00  0.00000000E+00
  0.00000000E+00  0.00000000E+00  0.00000000E+00
  0.00000000E+00  0.00000000E+00  0.00000000E+00
  0.00000000E+00  0.00000000E+00  0.00000000E+00
  0.00000000E+00  0.00000000E+00  0.00000000E+00
  0.00000000E+00  0.00000000E+00  0.00000000E+00
  0.00000000E+00  0.00000000E+00  0.00000000E+00
  0.00000000E+00  0.00000000E+00  0.00000000E+00
  0.00000000E+00  0.00000000E+00  0.00000000E+00
  0.00000000E+00  0.00000000E+00  0.00000000E+00
  0.00000000E+00  0.00000000E+00  0.00000000E+00
  0.00000000E+00  0.00000000E+00  0.00000000E+00
  0.00000000E+00  0.00000000E+00  0.00000000E+00
  0.00000000E+00  0.00000000E+00  0.00000000E+00
  0.00000000E+00  0.00000000E+00  0.00000000E+00
