C  N  Au Cu                             
   1.00000000000000     
    12.8895840479858173    0.0000000000000000    0.0000000000000000
     0.0000000000000000   11.6959580984475213    0.0000000000000000
     0.0000000000000000    0.0000000000000000   15.0000000000000000
   C    N    Au   Cu
    24    32     1     1
Direct
  0.0442443288461547  0.3970529159162451  0.1163976781254790
  0.9945343302381596  0.2422843401339842  0.2188049355004278
  0.2089228770838828  0.3921518618119073  0.0661287706837536
  0.7991525907747885  0.5777716699460774  0.2062992258099801
  0.1513299447568449  0.2298137971053891  0.1306889122003323
  0.8967847613504525  0.3995909966592496  0.1983484867248716
  0.5426946634419749  0.3935071475093291  0.1368272939554314
  0.4938162320538089  0.2408631126341401  0.0348696994559202
  0.7104473677853667  0.3925384542180477  0.1876608083298525
  0.2998396448183308  0.5766347028118984  0.0561855435133900
  0.6528710956625894  0.2299788492259630  0.1216100318677352
  0.3951035891651432  0.3980572399182057  0.0557469805481962
  0.8392453905977503  0.8964293337930389  0.1187504249035560
  0.7290833161765076  0.7335461875334846  0.1386548136820402
  0.9877110861494447  0.8994202529104285  0.1998474381996088
  0.0840332188110878  0.0769970299287812  0.2012230596534543
  0.8906413176919150  0.7417526940166091  0.2207523604096075
  0.6737933455493178  0.8930742262291566  0.0693983157117962
  0.3392992972479530  0.8974253529934533  0.1395057706241850
  0.2330720855267962  0.7293042458101643  0.1272679861239326
  0.4866507930785022  0.8998017952368940  0.0574472566360760
  0.5844915009559549  0.0764519639125604  0.0525265744308653
  0.3900305872511882  0.7413529717206772  0.0392983762008196
  0.1747854544039571  0.8926775486019783  0.1898758353719378
  0.9527887027694792  0.4471347572732317  0.1334578617967561
  0.9145873026276850  0.3065600681857438  0.2469005361913751
  0.1157810608102259  0.4435426353076219  0.0637396032494786
  0.1557875462238291  0.1186652250442940  0.1469578294495821
  0.0090916418995903  0.1341928112063277  0.2449065661006972
  0.2281890325649379  0.2849131886920912  0.0909691977325631
  0.0634880200838553  0.2907606150720598  0.1568972143183133
  0.7977406869143859  0.4566677505252351  0.2120573381836047
  0.4526087321054594  0.4446350353426756  0.1207677167567924
  0.4138331116571203  0.3051874300834725  0.0071003190048209
  0.6141646699054392  0.4406072976211655  0.1910022945078143
  0.6580623283357687  0.1196014709616453  0.1045210602165850
  0.5087246394404727  0.1329496651852759  0.0091568467110475
  0.7295806983470042  0.2867410628020733  0.1604775467244504
  0.5633137330506264  0.2892617993091249  0.0968611342025159
  0.2976729316929022  0.4557824235105353  0.0429505532434592
  0.7674104740711640  0.9428148786124220  0.0660504264972406
  0.6530356427453539  0.7875443208848905  0.0975031936326479
  0.9304609534127453  0.9464392505861664  0.1350615837991180
  0.8783322157032688  0.6323536413759022  0.2447095540612864
  0.7192982073645189  0.6237736953167846  0.1616127623524010
  0.9704694360234672  0.8058768254892995  0.2479795544810152
  0.8196555821883933  0.7906095144978094  0.1600996535980295
  0.5854124258764607  0.9562078385634724  0.0434898910100152
  0.2675723985943325  0.9445643971769769  0.1916246131004715
  0.1558643002553397  0.7848391256679624  0.1659158350230074
  0.4294598775312340  0.9490340103846596  0.1206112562872769
  0.3751926014465128  0.6331426062237776  0.0129364801691602
  0.2285175881534486  0.6177060392424832  0.1110009011305002
  0.4696191298679682  0.8050109507465349  0.0104457211356712
  0.3209240849290749  0.7899685813077247  0.1008766947515334
  0.0857365027031288  0.9565115185821830  0.2127731339086540
  0.5058079746591797  0.7499531049384756  0.3152881140998260
  0.5774596850459692  0.5916593783809296  0.2385104339090915
 
  0.00000000E+00  0.00000000E+00  0.00000000E+00
  0.00000000E+00  0.00000000E+00  0.00000000E+00
  0.00000000E+00  0.00000000E+00  0.00000000E+00
  0.00000000E+00  0.00000000E+00  0.00000000E+00
  0.00000000E+00  0.00000000E+00  0.00000000E+00
  0.00000000E+00  0.00000000E+00  0.00000000E+00
  0.00000000E+00  0.00000000E+00  0.00000000E+00
  0.00000000E+00  0.00000000E+00  0.00000000E+00
  0.00000000E+00  0.00000000E+00  0.00000000E+00
  0.00000000E+00  0.00000000E+00  0.00000000E+00
  0.00000000E+00  0.00000000E+00  0.00000000E+00
  0.00000000E+00  0.00000000E+00  0.00000000E+00
  0.00000000E+00  0.00000000E+00  0.00000000E+00
  0.00000000E+00  0.00000000E+00  0.00000000E+00
  0.00000000E+00  0.00000000E+00  0.00000000E+00
  0.00000000E+00  0.00000000E+00  0.00000000E+00
  0.00000000E+00  0.00000000E+00  0.00000000E+00
  0.00000000E+00  0.00000000E+00  0.00000000E+00
  0.00000000E+00  0.00000000E+00  0.00000000E+00
  0.00000000E+00  0.00000000E+00  0.00000000E+00
  0.00000000E+00  0.00000000E+00  0.00000000E+00
  0.00000000E+00  0.00000000E+00  0.00000000E+00
  0.00000000E+00  0.00000000E+00  0.00000000E+00
  0.00000000E+00  0.00000000E+00  0.00000000E+00
  0.00000000E+00  0.00000000E+00  0.00000000E+00
  0.00000000E+00  0.00000000E+00  0.00000000E+00
  0.00000000E+00  0.00000000E+00  0.00000000E+00
  0.00000000E+00  0.00000000E+00  0.00000000E+00
  0.00000000E+00  0.00000000E+00  0.00000000E+00
  0.00000000E+00  0.00000000E+00  0.00000000E+00
  0.00000000E+00  0.00000000E+00  0.00000000E+00
  0.00000000E+00  0.00000000E+00  0.00000000E+00
  0.00000000E+00  0.00000000E+00  0.00000000E+00
  0.00000000E+00  0.00000000E+00  0.00000000E+00
  0.00000000E+00  0.00000000E+00  0.00000000E+00
  0.00000000E+00  0.00000000E+00  0.00000000E+00
  0.00000000E+00  0.00000000E+00  0.00000000E+00
  0.00000000E+00  0.00000000E+00  0.00000000E+00
  0.00000000E+00  0.00000000E+00  0.00000000E+00
  0.00000000E+00  0.00000000E+00  0.00000000E+00
  0.00000000E+00  0.00000000E+00  0.00000000E+00
  0.00000000E+00  0.00000000E+00  0.00000000E+00
  0.00000000E+00  0.00000000E+00  0.00000000E+00
  0.00000000E+00  0.00000000E+00  0.00000000E+00
  0.00000000E+00  0.00000000E+00  0.00000000E+00
  0.00000000E+00  0.00000000E+00  0.00000000E+00
  0.00000000E+00  0.00000000E+00  0.00000000E+00
  0.00000000E+00  0.00000000E+00  0.00000000E+00
  0.00000000E+00  0.00000000E+00  0.00000000E+00
  0.00000000E+00  0.00000000E+00  0.00000000E+00
  0.00000000E+00  0.00000000E+00  0.00000000E+00
  0.00000000E+00  0.00000000E+00  0.00000000E+00
  0.00000000E+00  0.00000000E+00  0.00000000E+00
  0.00000000E+00  0.00000000E+00  0.00000000E+00
  0.00000000E+00  0.00000000E+00  0.00000000E+00
  0.00000000E+00  0.00000000E+00  0.00000000E+00
  0.00000000E+00  0.00000000E+00  0.00000000E+00
  0.00000000E+00  0.00000000E+00  0.00000000E+00
