C  N  Au Cu                             
   1.00000000000000     
    13.7292609049224552    0.0000000000000000    0.0000000000000000
     0.0000000000000000   11.9527388032676498    0.0000000000000000
     0.0000000000000000    0.0000000000000000   15.0000000000000000
   C    N    Au   Cu
    24    32     1     2
Direct
  0.0632803849742098  0.4104322681330554  0.1257992498548578
  0.9768794675522563  0.2345304382698415  0.1419947639879329
  0.2267653678708948  0.4049767471645415  0.1370963681967230
  0.8107906351095018  0.5743115379432056  0.1353271324207845
  0.1519665937587430  0.2357771348967658  0.1393067049200576
  0.9005019228549714  0.3985809572194094  0.1278920490536444
  0.5646211173612002  0.3801587003767095  0.1619022677190357
  0.4749785228506667  0.2368259286017718  0.0834148513594409
  0.7250117551793561  0.3922607378301686  0.1235018348756177
  0.3205181633477887  0.5815587204700269  0.1247150410701760
  0.6497779361960307  0.2332214253210514  0.0809372733203709
  0.4034205339817938  0.3960310099158397  0.1310028097642848
  0.8111688765862877  0.9055523395117477  0.1567643095937280
  0.7351488606897628  0.7391162563819097  0.0980703634543694
  0.9758026818885620  0.8959957178399840  0.1722311507539001
  0.0644970178602432  0.0746563756259922  0.1432535983077885
  0.8977292199682126  0.7305449150933666  0.1679134019436823
  0.6558012593697322  0.9041568911342267  0.1079282562811046
  0.3178483330779593  0.9100353952286588  0.1591368454023465
  0.2384662150093737  0.7430590335902173  0.1008379868093637
  0.4798620767832338  0.9064175494469019  0.1314266554574589
  0.5602039490701545  0.0764632509954573  0.0741895655588872
  0.4059543553274299  0.7403779884102821  0.1492773164057634
  0.1551384062209171  0.8972332691991658  0.1431534102004919
  0.9786482184593573  0.4582095585409279  0.1053524503668514
  0.8946374658929963  0.2918648507746230  0.1524839754139275
  0.1458258740159616  0.4668978396123413  0.1337616772969681
  0.1510395283740310  0.1254403477608428  0.1387791673020131
  0.9779882177486889  0.1246638689568379  0.1406755649693076
  0.2343614893966671  0.2937953887057092  0.1435161322280694
  0.0639450918739186  0.2943901942247411  0.1357768049161081
  0.8111736250898562  0.4563589284065738  0.1276160432616182
  0.4782848238075013  0.4260528631694541  0.1861906317775047
  0.4022483739850131  0.3114500725787064  0.0746378266435540
  0.6497161709273711  0.4322696206934326  0.1745496063640540
  0.6467585708723570  0.1264802746776132  0.0585148549299605
  0.4735180657373002  0.1296540624481649  0.0634931923895924
  0.7264370829649042  0.3016208208365219  0.0737137113746575
  0.5634168429376375  0.2803942716795126  0.1180398759601494
  0.3164666336456256  0.4630459694186602  0.1334433450341053
  0.7231495831947066  0.9560372230438391  0.1563759110837903
  0.6598327374832826  0.8023235155488205  0.0705688282673039
  0.8929841429947002  0.9554395475536912  0.1773234293224680
  0.8865657385675858  0.6205036392399851  0.1771173452634714
  0.7340782828963045  0.6263317831095504  0.0937044323705005
  0.9801234272776723  0.7849931617304331  0.1864041384178519
  0.8168193362021567  0.7918309269574925  0.1330858859838910
  0.5625258374225003  0.9631048905202095  0.0992467795869112
  0.2298364522130190  0.9500115261434779  0.1801347578455196
  0.1555747483850782  0.8021279185816856  0.0938835768362046
  0.4007138640665822  0.9669411162688896  0.1556809830831983
  0.3967085727769470  0.6296806967354465  0.1658718909974441
  0.2510118778573536  0.6346777171618678  0.0785064346837683
  0.4881141981909899  0.7948282377726619  0.1431451702528954
  0.3190484147844068  0.7969777473648912  0.1368874381752606
  0.0633087575310297  0.9547424779531420  0.1538143122255738
  0.5990832752540488  0.6764257353468763  0.3542059377183832
  0.6574473148184048  0.5908132978175715  0.2144740459710980
  0.4863773047724829  0.5695383961610183  0.2578306349742563
 
  0.00000000E+00  0.00000000E+00  0.00000000E+00
  0.00000000E+00  0.00000000E+00  0.00000000E+00
  0.00000000E+00  0.00000000E+00  0.00000000E+00
  0.00000000E+00  0.00000000E+00  0.00000000E+00
  0.00000000E+00  0.00000000E+00  0.00000000E+00
  0.00000000E+00  0.00000000E+00  0.00000000E+00
  0.00000000E+00  0.00000000E+00  0.00000000E+00
  0.00000000E+00  0.00000000E+00  0.00000000E+00
  0.00000000E+00  0.00000000E+00  0.00000000E+00
  0.00000000E+00  0.00000000E+00  0.00000000E+00
  0.00000000E+00  0.00000000E+00  0.00000000E+00
  0.00000000E+00  0.00000000E+00  0.00000000E+00
  0.00000000E+00  0.00000000E+00  0.00000000E+00
  0.00000000E+00  0.00000000E+00  0.00000000E+00
  0.00000000E+00  0.00000000E+00  0.00000000E+00
  0.00000000E+00  0.00000000E+00  0.00000000E+00
  0.00000000E+00  0.00000000E+00  0.00000000E+00
  0.00000000E+00  0.00000000E+00  0.00000000E+00
  0.00000000E+00  0.00000000E+00  0.00000000E+00
  0.00000000E+00  0.00000000E+00  0.00000000E+00
  0.00000000E+00  0.00000000E+00  0.00000000E+00
  0.00000000E+00  0.00000000E+00  0.00000000E+00
  0.00000000E+00  0.00000000E+00  0.00000000E+00
  0.00000000E+00  0.00000000E+00  0.00000000E+00
  0.00000000E+00  0.00000000E+00  0.00000000E+00
  0.00000000E+00  0.00000000E+00  0.00000000E+00
  0.00000000E+00  0.00000000E+00  0.00000000E+00
  0.00000000E+00  0.00000000E+00  0.00000000E+00
  0.00000000E+00  0.00000000E+00  0.00000000E+00
  0.00000000E+00  0.00000000E+00  0.00000000E+00
  0.00000000E+00  0.00000000E+00  0.00000000E+00
  0.00000000E+00  0.00000000E+00  0.00000000E+00
  0.00000000E+00  0.00000000E+00  0.00000000E+00
  0.00000000E+00  0.00000000E+00  0.00000000E+00
  0.00000000E+00  0.00000000E+00  0.00000000E+00
  0.00000000E+00  0.00000000E+00  0.00000000E+00
  0.00000000E+00  0.00000000E+00  0.00000000E+00
  0.00000000E+00  0.00000000E+00  0.00000000E+00
  0.00000000E+00  0.00000000E+00  0.00000000E+00
  0.00000000E+00  0.00000000E+00  0.00000000E+00
  0.00000000E+00  0.00000000E+00  0.00000000E+00
  0.00000000E+00  0.00000000E+00  0.00000000E+00
  0.00000000E+00  0.00000000E+00  0.00000000E+00
  0.00000000E+00  0.00000000E+00  0.00000000E+00
  0.00000000E+00  0.00000000E+00  0.00000000E+00
  0.00000000E+00  0.00000000E+00  0.00000000E+00
  0.00000000E+00  0.00000000E+00  0.00000000E+00
  0.00000000E+00  0.00000000E+00  0.00000000E+00
  0.00000000E+00  0.00000000E+00  0.00000000E+00
  0.00000000E+00  0.00000000E+00  0.00000000E+00
  0.00000000E+00  0.00000000E+00  0.00000000E+00
  0.00000000E+00  0.00000000E+00  0.00000000E+00
  0.00000000E+00  0.00000000E+00  0.00000000E+00
  0.00000000E+00  0.00000000E+00  0.00000000E+00
  0.00000000E+00  0.00000000E+00  0.00000000E+00
  0.00000000E+00  0.00000000E+00  0.00000000E+00
  0.00000000E+00  0.00000000E+00  0.00000000E+00
  0.00000000E+00  0.00000000E+00  0.00000000E+00
  0.00000000E+00  0.00000000E+00  0.00000000E+00
