C  N  Au Cu                             
   1.00000000000000     
    14.1911442141156510    0.0000000000000000    0.0000000000000000
     0.0000000000000000   12.2432911335526082    0.0000000000000000
     0.0000000000000000    0.0000000000000000   15.0000000000000000
   C    N    Au   Cu
    24    32     1     2
Direct
  0.0659507626626248  0.4058786747143029  0.1333342616449876
  0.9811737840327333  0.2345565334316701  0.1329312795326334
  0.2259248800361874  0.3979340237721042  0.1324830944571671
  0.8174000901477374  0.5748513727513972  0.1278921310662062
  0.1505212326249411  0.2343587960774127  0.1324609319030398
  0.9060960903755286  0.3981658790718904  0.1325771049456433
  0.5662963377535430  0.4020556815312780  0.1435615510901917
  0.4811309410476470  0.2359203199116537  0.1215828644527596
  0.7291924160143546  0.3964298723899998  0.1378066788648325
  0.3132752749196139  0.5750611774168363  0.1295418742927054
  0.6509418163416421  0.2354262667537793  0.1194961078780270
  0.4033727113506395  0.3973975164361128  0.1385331338185851
  0.8148511276888249  0.9043541104444924  0.1335030163312811
  0.7313178504132960  0.7357379739067221  0.1144474663481788
  0.9756185468477778  0.8988414190538920  0.1359036085368566
  0.0654059325563266  0.0765168402353930  0.1336304205069949
  0.9003151939142447  0.7345659115365109  0.1301474471518377
  0.6546447138563779  0.8977629928576059  0.1229665974980992
  0.3159269524991194  0.9052706727919461  0.1304922402584182
  0.2302653284959177  0.7348116508772350  0.1281057356012636
  0.4769507885890163  0.8984377410968223  0.1247244263930627
  0.5658307257151334  0.0774083546006386  0.1291837865200835
  0.3996193149099385  0.7360822980609830  0.1198391127899355
  0.1552136878104285  0.8988892364221445  0.1353083481919358
  0.9842191638122975  0.4581758972548046  0.1325875904472395
  0.9007005931088441  0.2898920456303016  0.1322870799787237
  0.1477803122581498  0.4579100645437741  0.1333536142051251
  0.1485708427058364  0.1266430149222879  0.1319165902675243
  0.9823540310541999  0.1268175241671895  0.1323989444862005
  0.2311010422565693  0.2896655052435321  0.1311518979508572
  0.0658712772693066  0.2920897957295202  0.1341885983666967
  0.8165186257960660  0.4573624131545567  0.1329221058608667
  0.4842171083339543  0.4512294920936769  0.1622859809353366
  0.4012430432628334  0.2911060355751261  0.1267921063227919
  0.6490247985078921  0.4498200956994695  0.1635079253621714
  0.6493680776861770  0.1284109540158729  0.1287220193869445
  0.4828730077025705  0.1290219032353382  0.1315962464800395
  0.7310337445363688  0.2906335045806716  0.1232397807811578
  0.5659586234588161  0.2963551861180182  0.1052862075304545
  0.3153378343642859  0.4576259679000730  0.1331627476706875
  0.7325182987389485  0.9549748185486585  0.1412862076755339
  0.6514634235003870  0.7905667477186785  0.1033697573035859
  0.8961425632598020  0.9572578442579709  0.1371712672112075
  0.8991634829548946  0.6264176019563398  0.1298719940062424
  0.7323788939944934  0.6255804836807733  0.1205870691262245
  0.9799288024577680  0.7901061192273963  0.1372332901891605
  0.8156978702682053  0.7910908643770376  0.1227800092782092
  0.5657011409634194  0.9570235601221299  0.1262982132022982
  0.2343652811734239  0.9574398794967767  0.1362064008876115
  0.1508191431304225  0.7903066723648826  0.1356351068704433
  0.3979271040109195  0.9566700106415512  0.1355720185867753
  0.3977399799489412  0.6265598014041955  0.1281884032603826
  0.2315443554450824  0.6267339518480475  0.1279690119250765
  0.4805901075399551  0.7892301593360661  0.1159207056504873
  0.3150263853009087  0.7916600951627778  0.1201723558847503
  0.0653501563557085  0.9580631335394038  0.1359039224953210
  0.5692503668117874  0.6958451084139622  0.3423295639703562
  0.6492639190771532  0.5936200004134492  0.2256527119980953
  0.4856236936577390  0.5935715075793776  0.2278793343707366
 
  0.00000000E+00  0.00000000E+00  0.00000000E+00
  0.00000000E+00  0.00000000E+00  0.00000000E+00
  0.00000000E+00  0.00000000E+00  0.00000000E+00
  0.00000000E+00  0.00000000E+00  0.00000000E+00
  0.00000000E+00  0.00000000E+00  0.00000000E+00
  0.00000000E+00  0.00000000E+00  0.00000000E+00
  0.00000000E+00  0.00000000E+00  0.00000000E+00
  0.00000000E+00  0.00000000E+00  0.00000000E+00
  0.00000000E+00  0.00000000E+00  0.00000000E+00
  0.00000000E+00  0.00000000E+00  0.00000000E+00
  0.00000000E+00  0.00000000E+00  0.00000000E+00
  0.00000000E+00  0.00000000E+00  0.00000000E+00
  0.00000000E+00  0.00000000E+00  0.00000000E+00
  0.00000000E+00  0.00000000E+00  0.00000000E+00
  0.00000000E+00  0.00000000E+00  0.00000000E+00
  0.00000000E+00  0.00000000E+00  0.00000000E+00
  0.00000000E+00  0.00000000E+00  0.00000000E+00
  0.00000000E+00  0.00000000E+00  0.00000000E+00
  0.00000000E+00  0.00000000E+00  0.00000000E+00
  0.00000000E+00  0.00000000E+00  0.00000000E+00
  0.00000000E+00  0.00000000E+00  0.00000000E+00
  0.00000000E+00  0.00000000E+00  0.00000000E+00
  0.00000000E+00  0.00000000E+00  0.00000000E+00
  0.00000000E+00  0.00000000E+00  0.00000000E+00
  0.00000000E+00  0.00000000E+00  0.00000000E+00
  0.00000000E+00  0.00000000E+00  0.00000000E+00
  0.00000000E+00  0.00000000E+00  0.00000000E+00
  0.00000000E+00  0.00000000E+00  0.00000000E+00
  0.00000000E+00  0.00000000E+00  0.00000000E+00
  0.00000000E+00  0.00000000E+00  0.00000000E+00
  0.00000000E+00  0.00000000E+00  0.00000000E+00
  0.00000000E+00  0.00000000E+00  0.00000000E+00
  0.00000000E+00  0.00000000E+00  0.00000000E+00
  0.00000000E+00  0.00000000E+00  0.00000000E+00
  0.00000000E+00  0.00000000E+00  0.00000000E+00
  0.00000000E+00  0.00000000E+00  0.00000000E+00
  0.00000000E+00  0.00000000E+00  0.00000000E+00
  0.00000000E+00  0.00000000E+00  0.00000000E+00
  0.00000000E+00  0.00000000E+00  0.00000000E+00
  0.00000000E+00  0.00000000E+00  0.00000000E+00
  0.00000000E+00  0.00000000E+00  0.00000000E+00
  0.00000000E+00  0.00000000E+00  0.00000000E+00
  0.00000000E+00  0.00000000E+00  0.00000000E+00
  0.00000000E+00  0.00000000E+00  0.00000000E+00
  0.00000000E+00  0.00000000E+00  0.00000000E+00
  0.00000000E+00  0.00000000E+00  0.00000000E+00
  0.00000000E+00  0.00000000E+00  0.00000000E+00
  0.00000000E+00  0.00000000E+00  0.00000000E+00
  0.00000000E+00  0.00000000E+00  0.00000000E+00
  0.00000000E+00  0.00000000E+00  0.00000000E+00
  0.00000000E+00  0.00000000E+00  0.00000000E+00
  0.00000000E+00  0.00000000E+00  0.00000000E+00
  0.00000000E+00  0.00000000E+00  0.00000000E+00
  0.00000000E+00  0.00000000E+00  0.00000000E+00
  0.00000000E+00  0.00000000E+00  0.00000000E+00
  0.00000000E+00  0.00000000E+00  0.00000000E+00
  0.00000000E+00  0.00000000E+00  0.00000000E+00
  0.00000000E+00  0.00000000E+00  0.00000000E+00
  0.00000000E+00  0.00000000E+00  0.00000000E+00
