C  N  Au Cu                             
   1.00000000000000     
    13.7387108844528694    0.0000000000000000    0.0000000000000000
     0.0000000000000000   12.0100305690773279    0.0000000000000000
     0.0000000000000000    0.0000000000000000   15.0000000000000000
   C    N    Au   Cu
    24    32     1     2
Direct
  0.0629721158566401  0.4071332465256049  0.1294850266918630
  0.9760708777890631  0.2334444286785577  0.1408765673090411
  0.2259101767961287  0.4021624960602252  0.1403090276730403
  0.8108156364874937  0.5756805165166857  0.1319877191907394
  0.1511252938280403  0.2333717338118705  0.1377377131844670
  0.9008241593000129  0.3985867138045132  0.1272099967087213
  0.5648797045426979  0.3804427121545351  0.1670337299456288
  0.4761860584968173  0.2358478227003988  0.0887495819225236
  0.7258659743848646  0.3927047871641969  0.1284905411497349
  0.3162677619495224  0.5815685571338091  0.1271577648526982
  0.6512959666191741  0.2314291219007576  0.0907887291816815
  0.4028572447762648  0.3951168257519633  0.1366356441325856
  0.8103258673265036  0.9063820290549530  0.1587974004023269
  0.7337955350560884  0.7405340881898603  0.0988859936296247
  0.9752448643870176  0.8981227515568304  0.1666549808311602
  0.0632728041416120  0.0742508501551714  0.1383251758332580
  0.8980879823173896  0.7323932050705905  0.1603836733092930
  0.6568274172385995  0.9057781276976612  0.1040050306126569
  0.3191130151872049  0.9108009532647394  0.1585916266770838
  0.2368440800394489  0.7444741416779374  0.1017920388431609
  0.4803136123994189  0.9060787694361240  0.1263654813148209
  0.5620400141768459  0.0768293220532260  0.0737309050311949
  0.4056799099128959  0.7405805213685642  0.1448545659042083
  0.1572933066140711  0.9015424118533647  0.1399019585495122
  0.9802357348259607  0.4571382608318100  0.1083316268767316
  0.8941035255934191  0.2913738204481600  0.1482310095361100
  0.1452970892566380  0.4635005739292743  0.1380151338148553
  0.1499073164801240  0.1236945188638964  0.1304014812160709
  0.9766188075777538  0.1238265124831223  0.1375381686902462
  0.2334157758556872  0.2914473079727146  0.1427464850766008
  0.0633963661923965  0.2918468622601820  0.1396875976126450
  0.8114014739666340  0.4578423847223756  0.1266924682155169
  0.4785937877604950  0.4266327751399743  0.1902993559637912
  0.4021707784821361  0.3084237699883977  0.0825673693302556
  0.6498254537267889  0.4343137489606378  0.1776047771702480
  0.6491288818648556  0.1272955761703415  0.0655968226421428
  0.4763757878907745  0.1313325702171516  0.0626846712675265
  0.7278619608528004  0.2983848490794577  0.0842653280782832
  0.5640264159424802  0.2787868832600072  0.1265923162102062
  0.3148479999007384  0.4623213489347716  0.1385328387564536
  0.7231269458048297  0.9577907293285534  0.1534809085484249
  0.6615319016830632  0.8043223049356165  0.0672939131292236
  0.8924967170940252  0.9563782607364918  0.1808261421246602
  0.8902231088658479  0.6224100489764786  0.1661755933553967
  0.7313045284307265  0.6279979650620635  0.0954417083154820
  0.9812038467025360  0.7872349267857965  0.1717167798361301
  0.8139170351881609  0.7929116398683613  0.1368948322267975
  0.5632147539848614  0.9625950057269940  0.0931544861686510
  0.2312923760517446  0.9518688614593671  0.1810532129423139
  0.1583825392521604  0.8087641301244909  0.0889542717609150
  0.4019959717224881  0.9664080286574520  0.1522532770167780
  0.3971158086216128  0.6297592140612975  0.1598059121116425
  0.2428500100061168  0.6340198289996235  0.0854155595823316
  0.4882824208477250  0.7945465561412131  0.1362209328658998
  0.3185737389600062  0.7971084885238954  0.1374807912089951
  0.0635118383840962  0.9565270211058424  0.1484504597080503
  0.5980719124050634  0.6692271016899604  0.3580111486516032
  0.6591697330943016  0.5893752572083970  0.2192197837838794
  0.4865218724148562  0.5695298098602006  0.2554919633241584
 
  0.00000000E+00  0.00000000E+00  0.00000000E+00
  0.00000000E+00  0.00000000E+00  0.00000000E+00
  0.00000000E+00  0.00000000E+00  0.00000000E+00
  0.00000000E+00  0.00000000E+00  0.00000000E+00
  0.00000000E+00  0.00000000E+00  0.00000000E+00
  0.00000000E+00  0.00000000E+00  0.00000000E+00
  0.00000000E+00  0.00000000E+00  0.00000000E+00
  0.00000000E+00  0.00000000E+00  0.00000000E+00
  0.00000000E+00  0.00000000E+00  0.00000000E+00
  0.00000000E+00  0.00000000E+00  0.00000000E+00
  0.00000000E+00  0.00000000E+00  0.00000000E+00
  0.00000000E+00  0.00000000E+00  0.00000000E+00
  0.00000000E+00  0.00000000E+00  0.00000000E+00
  0.00000000E+00  0.00000000E+00  0.00000000E+00
  0.00000000E+00  0.00000000E+00  0.00000000E+00
  0.00000000E+00  0.00000000E+00  0.00000000E+00
  0.00000000E+00  0.00000000E+00  0.00000000E+00
  0.00000000E+00  0.00000000E+00  0.00000000E+00
  0.00000000E+00  0.00000000E+00  0.00000000E+00
  0.00000000E+00  0.00000000E+00  0.00000000E+00
  0.00000000E+00  0.00000000E+00  0.00000000E+00
  0.00000000E+00  0.00000000E+00  0.00000000E+00
  0.00000000E+00  0.00000000E+00  0.00000000E+00
  0.00000000E+00  0.00000000E+00  0.00000000E+00
  0.00000000E+00  0.00000000E+00  0.00000000E+00
  0.00000000E+00  0.00000000E+00  0.00000000E+00
  0.00000000E+00  0.00000000E+00  0.00000000E+00
  0.00000000E+00  0.00000000E+00  0.00000000E+00
  0.00000000E+00  0.00000000E+00  0.00000000E+00
  0.00000000E+00  0.00000000E+00  0.00000000E+00
  0.00000000E+00  0.00000000E+00  0.00000000E+00
  0.00000000E+00  0.00000000E+00  0.00000000E+00
  0.00000000E+00  0.00000000E+00  0.00000000E+00
  0.00000000E+00  0.00000000E+00  0.00000000E+00
  0.00000000E+00  0.00000000E+00  0.00000000E+00
  0.00000000E+00  0.00000000E+00  0.00000000E+00
  0.00000000E+00  0.00000000E+00  0.00000000E+00
  0.00000000E+00  0.00000000E+00  0.00000000E+00
  0.00000000E+00  0.00000000E+00  0.00000000E+00
  0.00000000E+00  0.00000000E+00  0.00000000E+00
  0.00000000E+00  0.00000000E+00  0.00000000E+00
  0.00000000E+00  0.00000000E+00  0.00000000E+00
  0.00000000E+00  0.00000000E+00  0.00000000E+00
  0.00000000E+00  0.00000000E+00  0.00000000E+00
  0.00000000E+00  0.00000000E+00  0.00000000E+00
  0.00000000E+00  0.00000000E+00  0.00000000E+00
  0.00000000E+00  0.00000000E+00  0.00000000E+00
  0.00000000E+00  0.00000000E+00  0.00000000E+00
  0.00000000E+00  0.00000000E+00  0.00000000E+00
  0.00000000E+00  0.00000000E+00  0.00000000E+00
  0.00000000E+00  0.00000000E+00  0.00000000E+00
  0.00000000E+00  0.00000000E+00  0.00000000E+00
  0.00000000E+00  0.00000000E+00  0.00000000E+00
  0.00000000E+00  0.00000000E+00  0.00000000E+00
  0.00000000E+00  0.00000000E+00  0.00000000E+00
  0.00000000E+00  0.00000000E+00  0.00000000E+00
  0.00000000E+00  0.00000000E+00  0.00000000E+00
  0.00000000E+00  0.00000000E+00  0.00000000E+00
  0.00000000E+00  0.00000000E+00  0.00000000E+00
