C  N  Au Cu                             
   1.00000000000000     
    14.1617721261579828    0.0000000000000000    0.0000000000000000
     0.0000000000000000   12.2516954977363302    0.0000000000000000
     0.0000000000000000    0.0000000000000000   15.0000000000000000
   C    N    Au   Cu
    24    32     1     2
Direct
  0.0660535651371158  0.4032784088567778  0.1331483039406548
  0.9803108942497286  0.2338953994818843  0.1328881308919844
  0.2262920141942739  0.3975704708666744  0.1337520392057410
  0.8150868696593664  0.5759524398880109  0.1261322198079458
  0.1508356812975190  0.2334635477877995  0.1314363242129402
  0.9060087144337025  0.3987678211028668  0.1339852197749392
  0.5665122341809296  0.3997174397285555  0.1570260197548576
  0.4814339571691254  0.2387528331074038  0.1179332614910418
  0.7286919154278902  0.3963944672114916  0.1407885025496242
  0.3153726774536963  0.5761414600699514  0.1281074643777589
  0.6504682496441986  0.2387276574435554  0.1131911802088896
  0.4040980858022992  0.3978094938253557  0.1437157441031974
  0.8145890934971546  0.9046826948271743  0.1358970074233956
  0.7306679437248303  0.7370696163985018  0.1091052808228316
  0.9764541355780748  0.8971249631983605  0.1382407378107439
  0.0652171725339477  0.0759248663732733  0.1333688595879214
  0.8997327601297346  0.7346298180754037  0.1283026104646063
  0.6546212091852958  0.9008224908688095  0.1234595111497056
  0.3154686912972259  0.9057510879602290  0.1305052604164871
  0.2301988537302473  0.7342841980592663  0.1243131958243615
  0.4762244255781676  0.9013497277873225  0.1260582894917148
  0.5658170727573820  0.0797365206564062  0.1212957629904466
  0.4002589143190549  0.7367716463284797  0.1173306100241661
  0.1544001142071191  0.8967164226281863  0.1359361264268966
  0.9848801541203465  0.4565961053943797  0.1322621665153500
  0.9008800695981038  0.2906269397525363  0.1344267121169488
  0.1476271046659712  0.4555909393747930  0.1343646664201640
  0.1491236727353906  0.1252106355330088  0.1308059827788874
  0.9814987757716501  0.1254694142851355  0.1313950811168342
  0.2309209453403377  0.2894085740361269  0.1306188211517164
  0.0656990655210898  0.2901042950528914  0.1337407987286428
  0.8155443020658439  0.4587582620318860  0.1362624479342984
  0.4836549743190316  0.4460368792575997  0.1783904568833827
  0.4019044460339866  0.2951987285098879  0.1194587215453580
  0.6504024436591467  0.4454915071507593  0.1772425501783944
  0.6497109791735296  0.1312208477283722  0.1143877445379771
  0.4827611752733798  0.1319496378993674  0.1224282986402793
  0.7305326179637163  0.2948824495766191  0.1131368670980996
  0.5660256851870478  0.2993655280163414  0.1116185933354647
  0.3164355413112356  0.4589726698578811  0.1376263965341190
  0.7318112406973059  0.9546229856452311  0.1484528697338751
  0.6527052854008228  0.7959302410570842  0.0987276738593546
  0.8963631417227295  0.9553718126048979  0.1427324351192883
  0.8966338264271642  0.6265956887975175  0.1320819144997573
  0.7294831546669317  0.6261158983486647  0.1116449613865909
  0.9801477074237087  0.7884201449313432  0.1369734469123199
  0.8158518794471494  0.7916706752703544  0.1184129204356807
  0.5651924620201242  0.9611577977697721  0.1258124309808761
  0.2334843695482257  0.9555737796839466  0.1398182454296354
  0.1500111587672532  0.7883415648268831  0.1332085817219192
  0.3970346379050999  0.9581733762526258  0.1381605401841587
  0.4011276189981531  0.6268171588808165  0.1229166018008527
  0.2333016927552551  0.6264083358155198  0.1275556927876277
  0.4803115677790707  0.7924403223974609  0.1182085396699216
  0.3148577473498393  0.7919932746025270  0.1147478784973405
  0.0652027549483243  0.9561129749511379  0.1372267784974212
  0.5707113876390421  0.6780661496909742  0.3520225757328325
  0.6542708969513390  0.5958073997323707  0.2237330626190238
  0.4829838669322952  0.5923545888480582  0.2293588818627969
 
  0.00000000E+00  0.00000000E+00  0.00000000E+00
  0.00000000E+00  0.00000000E+00  0.00000000E+00
  0.00000000E+00  0.00000000E+00  0.00000000E+00
  0.00000000E+00  0.00000000E+00  0.00000000E+00
  0.00000000E+00  0.00000000E+00  0.00000000E+00
  0.00000000E+00  0.00000000E+00  0.00000000E+00
  0.00000000E+00  0.00000000E+00  0.00000000E+00
  0.00000000E+00  0.00000000E+00  0.00000000E+00
  0.00000000E+00  0.00000000E+00  0.00000000E+00
  0.00000000E+00  0.00000000E+00  0.00000000E+00
  0.00000000E+00  0.00000000E+00  0.00000000E+00
  0.00000000E+00  0.00000000E+00  0.00000000E+00
  0.00000000E+00  0.00000000E+00  0.00000000E+00
  0.00000000E+00  0.00000000E+00  0.00000000E+00
  0.00000000E+00  0.00000000E+00  0.00000000E+00
  0.00000000E+00  0.00000000E+00  0.00000000E+00
  0.00000000E+00  0.00000000E+00  0.00000000E+00
  0.00000000E+00  0.00000000E+00  0.00000000E+00
  0.00000000E+00  0.00000000E+00  0.00000000E+00
  0.00000000E+00  0.00000000E+00  0.00000000E+00
  0.00000000E+00  0.00000000E+00  0.00000000E+00
  0.00000000E+00  0.00000000E+00  0.00000000E+00
  0.00000000E+00  0.00000000E+00  0.00000000E+00
  0.00000000E+00  0.00000000E+00  0.00000000E+00
  0.00000000E+00  0.00000000E+00  0.00000000E+00
  0.00000000E+00  0.00000000E+00  0.00000000E+00
  0.00000000E+00  0.00000000E+00  0.00000000E+00
  0.00000000E+00  0.00000000E+00  0.00000000E+00
  0.00000000E+00  0.00000000E+00  0.00000000E+00
  0.00000000E+00  0.00000000E+00  0.00000000E+00
  0.00000000E+00  0.00000000E+00  0.00000000E+00
  0.00000000E+00  0.00000000E+00  0.00000000E+00
  0.00000000E+00  0.00000000E+00  0.00000000E+00
  0.00000000E+00  0.00000000E+00  0.00000000E+00
  0.00000000E+00  0.00000000E+00  0.00000000E+00
  0.00000000E+00  0.00000000E+00  0.00000000E+00
  0.00000000E+00  0.00000000E+00  0.00000000E+00
  0.00000000E+00  0.00000000E+00  0.00000000E+00
  0.00000000E+00  0.00000000E+00  0.00000000E+00
  0.00000000E+00  0.00000000E+00  0.00000000E+00
  0.00000000E+00  0.00000000E+00  0.00000000E+00
  0.00000000E+00  0.00000000E+00  0.00000000E+00
  0.00000000E+00  0.00000000E+00  0.00000000E+00
  0.00000000E+00  0.00000000E+00  0.00000000E+00
  0.00000000E+00  0.00000000E+00  0.00000000E+00
  0.00000000E+00  0.00000000E+00  0.00000000E+00
  0.00000000E+00  0.00000000E+00  0.00000000E+00
  0.00000000E+00  0.00000000E+00  0.00000000E+00
  0.00000000E+00  0.00000000E+00  0.00000000E+00
  0.00000000E+00  0.00000000E+00  0.00000000E+00
  0.00000000E+00  0.00000000E+00  0.00000000E+00
  0.00000000E+00  0.00000000E+00  0.00000000E+00
  0.00000000E+00  0.00000000E+00  0.00000000E+00
  0.00000000E+00  0.00000000E+00  0.00000000E+00
  0.00000000E+00  0.00000000E+00  0.00000000E+00
  0.00000000E+00  0.00000000E+00  0.00000000E+00
  0.00000000E+00  0.00000000E+00  0.00000000E+00
  0.00000000E+00  0.00000000E+00  0.00000000E+00
  0.00000000E+00  0.00000000E+00  0.00000000E+00
