C  N  Au Cu                             
   1.00000000000000     
    13.7292157524996750    0.0000000000000000    0.0000000000000000
     0.0000000000000000   11.9525011827719432    0.0000000000000000
     0.0000000000000000    0.0000000000000000   15.0000000000000000
   C    N    Au   Cu
    24    32     1     2
Direct
  0.0632768928743278  0.4102757940323664  0.1259858576663088
  0.9768382862479709  0.2345673746917659  0.1419373598313792
  0.2267466639007900  0.4048410033821934  0.1372885689116918
  0.8108505919722253  0.5743368457950953  0.1351515114368989
  0.1519379660145165  0.2358506010312386  0.1392492588628865
  0.9004512100653772  0.3985176182364871  0.1278133727375039
  0.5645717103849066  0.3801667371103749  0.1621490707326203
  0.4750496778861950  0.2368518256812355  0.0835820537101869
  0.7250354802947698  0.3923108766226828  0.1237947393421926
  0.3203500566658693  0.5815415796624627  0.1247240714970465
  0.6498044568103568  0.2330813761441475  0.0813146297233845
  0.4033621012054383  0.3960319048990427  0.1313182685521939
  0.8110935200893120  0.9055461487882760  0.1568450263410770
  0.7350891997119229  0.7391772575517218  0.0980472882164515
  0.9758092570417890  0.8960828534895333  0.1720323092178881
  0.0644712704127820  0.0746997364533916  0.1430189477772299
  0.8976949384514346  0.7306128940134776  0.1676568400371727
  0.6558323190640167  0.9041751853405289  0.1078127808771999
  0.3179502233949321  0.9101094348317413  0.1591652079732635
  0.2384598583482406  0.7432464605546495  0.1008322730871091
  0.4797954630977924  0.9063506611222092  0.1311291503724748
  0.5602580637949295  0.0763678387075071  0.0741528312355029
  0.4058470950732022  0.7403821691000290  0.1491647261987226
  0.1552112414176061  0.8975496772909173  0.1430343338054295
  0.9786779189381357  0.4580578898951141  0.1053496109324331
  0.8946111507547734  0.2917761717052975  0.1523483791068230
  0.1457971262305849  0.4668178422731898  0.1340958344940751
  0.1509505966808960  0.1253013189540671  0.1383923181290728
  0.9779537377208717  0.1245022160677609  0.1405416245645757
  0.2343268426773578  0.2936666608669704  0.1435094481204053
  0.0639271852534139  0.2942253692336431  0.1359476722131470
  0.8111874511063241  0.4564195992891912  0.1275527257427941
  0.4783196258801745  0.4260736017707489  0.1864313776513335
  0.4022453484755827  0.3114155883857863  0.0749555398918307
  0.6497036585444961  0.4323964645069659  0.1747242691777998
  0.6468955338122816  0.1266115145120597  0.0587453652258764
  0.4735283411234681  0.1297822863881844  0.0634422646190665
  0.7264766478392861  0.3014662580011632  0.0742445594652053
  0.5634520731091264  0.2804302634038190  0.1183208547704940
  0.3164098193157812  0.4629424228913300  0.1336355198513976
  0.7231439693519126  0.9561109936433664  0.1562206031448933
  0.6598772651535042  0.8023787517085207  0.0704143773130445
  0.8930077856092550  0.9554513136403646  0.1773956082670120
  0.8867932472860059  0.6205206885163398  0.1766781059062920
  0.7340359100812365  0.6263795487930778  0.0936465461298074
  0.9802354027857959  0.7850013645798847  0.1859723598329731
  0.8166808852082386  0.7918824397024457  0.1333022967606790
  0.5625330053153480  0.9630120038075582  0.0990118860413010
  0.2299314604168491  0.9502356945431794  0.1801299793154048
  0.1557599782734934  0.8025249341922436  0.0935943441943908
  0.4007549783384746  0.9668395450787249  0.1554507153535578
  0.3966598667649237  0.6296379898497505  0.1656966230935582
  0.2508555193885866  0.6346990768702903  0.0785728451950991
  0.4880950354284621  0.7947117059720747  0.1427520501433249
  0.3189555662917989  0.7969641990770876  0.1371170179481848
  0.0633232867027422  0.9548788061402664  0.1535408879050233
  0.5990946028852124  0.6761012762538603  0.3543001951377459
  0.6575611971689924  0.5907988162374876  0.2147565346675068
  0.4863540311736318  0.5695046048116202  0.2578891815500984
 
  0.00000000E+00  0.00000000E+00  0.00000000E+00
  0.00000000E+00  0.00000000E+00  0.00000000E+00
  0.00000000E+00  0.00000000E+00  0.00000000E+00
  0.00000000E+00  0.00000000E+00  0.00000000E+00
  0.00000000E+00  0.00000000E+00  0.00000000E+00
  0.00000000E+00  0.00000000E+00  0.00000000E+00
  0.00000000E+00  0.00000000E+00  0.00000000E+00
  0.00000000E+00  0.00000000E+00  0.00000000E+00
  0.00000000E+00  0.00000000E+00  0.00000000E+00
  0.00000000E+00  0.00000000E+00  0.00000000E+00
  0.00000000E+00  0.00000000E+00  0.00000000E+00
  0.00000000E+00  0.00000000E+00  0.00000000E+00
  0.00000000E+00  0.00000000E+00  0.00000000E+00
  0.00000000E+00  0.00000000E+00  0.00000000E+00
  0.00000000E+00  0.00000000E+00  0.00000000E+00
  0.00000000E+00  0.00000000E+00  0.00000000E+00
  0.00000000E+00  0.00000000E+00  0.00000000E+00
  0.00000000E+00  0.00000000E+00  0.00000000E+00
  0.00000000E+00  0.00000000E+00  0.00000000E+00
  0.00000000E+00  0.00000000E+00  0.00000000E+00
  0.00000000E+00  0.00000000E+00  0.00000000E+00
  0.00000000E+00  0.00000000E+00  0.00000000E+00
  0.00000000E+00  0.00000000E+00  0.00000000E+00
  0.00000000E+00  0.00000000E+00  0.00000000E+00
  0.00000000E+00  0.00000000E+00  0.00000000E+00
  0.00000000E+00  0.00000000E+00  0.00000000E+00
  0.00000000E+00  0.00000000E+00  0.00000000E+00
  0.00000000E+00  0.00000000E+00  0.00000000E+00
  0.00000000E+00  0.00000000E+00  0.00000000E+00
  0.00000000E+00  0.00000000E+00  0.00000000E+00
  0.00000000E+00  0.00000000E+00  0.00000000E+00
  0.00000000E+00  0.00000000E+00  0.00000000E+00
  0.00000000E+00  0.00000000E+00  0.00000000E+00
  0.00000000E+00  0.00000000E+00  0.00000000E+00
  0.00000000E+00  0.00000000E+00  0.00000000E+00
  0.00000000E+00  0.00000000E+00  0.00000000E+00
  0.00000000E+00  0.00000000E+00  0.00000000E+00
  0.00000000E+00  0.00000000E+00  0.00000000E+00
  0.00000000E+00  0.00000000E+00  0.00000000E+00
  0.00000000E+00  0.00000000E+00  0.00000000E+00
  0.00000000E+00  0.00000000E+00  0.00000000E+00
  0.00000000E+00  0.00000000E+00  0.00000000E+00
  0.00000000E+00  0.00000000E+00  0.00000000E+00
  0.00000000E+00  0.00000000E+00  0.00000000E+00
  0.00000000E+00  0.00000000E+00  0.00000000E+00
  0.00000000E+00  0.00000000E+00  0.00000000E+00
  0.00000000E+00  0.00000000E+00  0.00000000E+00
  0.00000000E+00  0.00000000E+00  0.00000000E+00
  0.00000000E+00  0.00000000E+00  0.00000000E+00
  0.00000000E+00  0.00000000E+00  0.00000000E+00
  0.00000000E+00  0.00000000E+00  0.00000000E+00
  0.00000000E+00  0.00000000E+00  0.00000000E+00
  0.00000000E+00  0.00000000E+00  0.00000000E+00
  0.00000000E+00  0.00000000E+00  0.00000000E+00
  0.00000000E+00  0.00000000E+00  0.00000000E+00
  0.00000000E+00  0.00000000E+00  0.00000000E+00
  0.00000000E+00  0.00000000E+00  0.00000000E+00
  0.00000000E+00  0.00000000E+00  0.00000000E+00
  0.00000000E+00  0.00000000E+00  0.00000000E+00
