C  N  Ag                                
   1.00000000000000     
    12.8994888591969037    0.0000000000000000    0.0000000000000000
     0.0000000000000000   11.6954530493243105    0.0000000000000000
     0.0000000000000000    0.0000000000000000   15.0000000000000000
   C    N    Ag
    24    32     2
Direct
  0.0454679064581583  0.3965096617284851  0.1159750263747432
 -0.0046331957933429  0.2409202498980775  0.2173423101435866
  0.2099330245350627  0.3913556251078047  0.0653784130127877
  0.8011599086275704  0.5762918426736567  0.1990075873678936
  0.1512864535619085  0.2281692175808391  0.1279040603766948
  0.8974935013334280  0.3980796190011927  0.1974807583872396
  0.5445456066874516  0.3958687389851691  0.1379133809803396
  0.4951400709373298  0.2413662307703636  0.0368375766495231
  0.7104942877016909  0.3920468976440684  0.1896990016661645
  0.3000325900679726  0.5760222307414431  0.0564721242591838
  0.6510918149410843  0.2284502345789809  0.1267189250570033
  0.3967446667150787  0.3988547909013150  0.0562776256325795
  0.8389997431243558  0.8966886088764076  0.1153487529056580
  0.7333552962310959  0.7286406345615106  0.1273646876771018
  0.9871221162104047  0.8985721892059818  0.1966801117484260
  0.0838256038777797  0.0755658257091164  0.1986972583275832
  0.8894323080595581  0.7414406719666234  0.2167330427756265
  0.6739244135716066  0.8916988165468148  0.0656458248074950
  0.3383627299948216  0.8969560621071927  0.1390224139693746
  0.2334257287353360  0.7278273350612344  0.1284574979956518
  0.4861152524805927  0.8988835522124100  0.0572951439249455
  0.5834476800260174  0.0756517343047116  0.0561826030262910
  0.3886856904960018  0.7412957913872172  0.0383346406449104
  0.1743268279120539  0.8913556627035212  0.1898016571376628
  0.9541965858860900  0.4464420919282756  0.1333472892543012
  0.9153457795078354  0.3046071433402719  0.2455304718641619
  0.1172036087079195  0.4436302515619093  0.0639325033683474
  0.1545562448674931  0.1165966405478671  0.1432030397540414
  0.0100349310029490  0.1328253807025036  0.2434408312621757
  0.2281630202273882  0.2831488150285745  0.0882524872052128
  0.0642666443590561  0.2895396796214383  0.1553890309455198
  0.7990562824582004  0.4554018237305584  0.2110676113271188
  0.4546936087299973  0.4471616251640486  0.1203808189797900
  0.4151514160574757  0.3051698019361619  0.0087232162437895
  0.6155435326104975  0.4421176056213900  0.1924291102756474
  0.6540888574195606  0.1170406022970202  0.1118943548643906
  0.5099894866497359  0.1333424967677872  0.0111039887881083
  0.7279276494853957  0.2844975140058771  0.1655372185668144
  0.5641777635402014  0.2899987656778301  0.0987774035378368
  0.2988527026350882  0.4551764633357742  0.0434056572615114
  0.7664917824363721  0.9442428294916008  0.0642846389034106
  0.6564188043666798  0.7828988042005114  0.0874600866863336
  0.9304533246845086  0.9464903738892345  0.1321767724251927
  0.8752218547582283  0.6331146292635672  0.2429333419523300
  0.7293607292415709  0.6170968096113142  0.1441812874241374
  0.9688499896490566  0.8052348322592999  0.2449656979734442
  0.8206304919276526  0.7893520050454983  0.1543146805245551
  0.5846675096895515  0.9553806946617428  0.0442476449187400
  0.2667402723721217  0.9439338951279370  0.1911995296111788
  0.1565169449312140  0.7826387451694194  0.1679664722162664
  0.4288675788966979  0.9478599068878333  0.1207112855104243
  0.3735494441742007  0.6332621207663367  0.0117252549843373
  0.2301949335090497  0.6160232384372551  0.1131225168785380
  0.4684220755468491  0.8047831470304811  0.0097524987122820
  0.3197755332074730  0.7896706239706913  0.1001423383740846
  0.0850304660904945  0.9551144425737780  0.2105555699966153
  0.5093003069116128  0.7877843912859855  0.3510365558500484
  0.5547025553869729  0.6036011894847887  0.2655683687108975
 
  0.00000000E+00  0.00000000E+00  0.00000000E+00
  0.00000000E+00  0.00000000E+00  0.00000000E+00
  0.00000000E+00  0.00000000E+00  0.00000000E+00
  0.00000000E+00  0.00000000E+00  0.00000000E+00
  0.00000000E+00  0.00000000E+00  0.00000000E+00
  0.00000000E+00  0.00000000E+00  0.00000000E+00
  0.00000000E+00  0.00000000E+00  0.00000000E+00
  0.00000000E+00  0.00000000E+00  0.00000000E+00
  0.00000000E+00  0.00000000E+00  0.00000000E+00
  0.00000000E+00  0.00000000E+00  0.00000000E+00
  0.00000000E+00  0.00000000E+00  0.00000000E+00
  0.00000000E+00  0.00000000E+00  0.00000000E+00
  0.00000000E+00  0.00000000E+00  0.00000000E+00
  0.00000000E+00  0.00000000E+00  0.00000000E+00
  0.00000000E+00  0.00000000E+00  0.00000000E+00
  0.00000000E+00  0.00000000E+00  0.00000000E+00
  0.00000000E+00  0.00000000E+00  0.00000000E+00
  0.00000000E+00  0.00000000E+00  0.00000000E+00
  0.00000000E+00  0.00000000E+00  0.00000000E+00
  0.00000000E+00  0.00000000E+00  0.00000000E+00
  0.00000000E+00  0.00000000E+00  0.00000000E+00
  0.00000000E+00  0.00000000E+00  0.00000000E+00
  0.00000000E+00  0.00000000E+00  0.00000000E+00
  0.00000000E+00  0.00000000E+00  0.00000000E+00
  0.00000000E+00  0.00000000E+00  0.00000000E+00
  0.00000000E+00  0.00000000E+00  0.00000000E+00
  0.00000000E+00  0.00000000E+00  0.00000000E+00
  0.00000000E+00  0.00000000E+00  0.00000000E+00
  0.00000000E+00  0.00000000E+00  0.00000000E+00
  0.00000000E+00  0.00000000E+00  0.00000000E+00
  0.00000000E+00  0.00000000E+00  0.00000000E+00
  0.00000000E+00  0.00000000E+00  0.00000000E+00
  0.00000000E+00  0.00000000E+00  0.00000000E+00
  0.00000000E+00  0.00000000E+00  0.00000000E+00
  0.00000000E+00  0.00000000E+00  0.00000000E+00
  0.00000000E+00  0.00000000E+00  0.00000000E+00
  0.00000000E+00  0.00000000E+00  0.00000000E+00
  0.00000000E+00  0.00000000E+00  0.00000000E+00
  0.00000000E+00  0.00000000E+00  0.00000000E+00
  0.00000000E+00  0.00000000E+00  0.00000000E+00
  0.00000000E+00  0.00000000E+00  0.00000000E+00
  0.00000000E+00  0.00000000E+00  0.00000000E+00
  0.00000000E+00  0.00000000E+00  0.00000000E+00
  0.00000000E+00  0.00000000E+00  0.00000000E+00
  0.00000000E+00  0.00000000E+00  0.00000000E+00
  0.00000000E+00  0.00000000E+00  0.00000000E+00
  0.00000000E+00  0.00000000E+00  0.00000000E+00
  0.00000000E+00  0.00000000E+00  0.00000000E+00
  0.00000000E+00  0.00000000E+00  0.00000000E+00
  0.00000000E+00  0.00000000E+00  0.00000000E+00
  0.00000000E+00  0.00000000E+00  0.00000000E+00
  0.00000000E+00  0.00000000E+00  0.00000000E+00
  0.00000000E+00  0.00000000E+00  0.00000000E+00
  0.00000000E+00  0.00000000E+00  0.00000000E+00
  0.00000000E+00  0.00000000E+00  0.00000000E+00
  0.00000000E+00  0.00000000E+00  0.00000000E+00
  0.00000000E+00  0.00000000E+00  0.00000000E+00
  0.00000000E+00  0.00000000E+00  0.00000000E+00
