C  N  Cu                                
   1.00000000000000     
    14.2042610222913748    0.0000000000000000    0.0000000000000000
     0.0000000000000000   12.3060662445024178    0.0000000000000000
     0.0000000000000000    0.0000000000000000   15.0000000000000000
   C    N    Cu
    24    32     1
Direct
  0.0655355160086087  0.4041979015047002  0.1333358454694683
  0.9807513518575890  0.2344474366949000  0.1333091918747106
  0.2259483196047475  0.3979432684412137  0.1333282782302363
  0.8156826436118807  0.5758864173480408  0.1335383722343990
  0.1503142035037955  0.2344523260192030  0.1333036213138855
  0.9051469221528807  0.3979522549071347  0.1333281888155212
  0.5656331246540495  0.4005432377303045  0.1334310341960991
  0.4800698692854460  0.2333147818288896  0.1331505285916280
  0.7270058723921500  0.3980606555327150  0.1335084493548557
  0.3153060398095942  0.5759562125762556  0.1335328441642374
  0.6511117853065770  0.2332451596931379  0.1331538517976434
  0.4041958169514865  0.3982377435373153  0.1335513034272575
  0.8158511693894230  0.9051288186294261  0.1332073338684826
  0.7331299625870908  0.7360579299526213  0.1334098297960986
  0.9764525886570155  0.8984497711246264  0.1333151419919257
  0.9012718350528292  0.7342388640190827  0.1331582178931336
  0.6542987819775926  0.8985517780821003  0.1335627205992835
  0.3150104939075562  0.9053385897103957  0.1331745082449053
  0.2295882198834539  0.7343275566804969  0.1331453779365841
  0.4765779378955756  0.8987731023228978  0.1335491960404953
  0.3976511713376183  0.7363160802792874  0.1333447534828869
  0.1544234910545002  0.8985047494021872  0.1333291919069846
  0.0654752366135261  0.0768864068930400  0.1333277820826597
  0.5655344753970097  0.0762814983470325  0.1333183831164596
  0.9838497437801895  0.4566584465968827  0.1333272957301159
  0.9004832425283379  0.2901709240583490  0.1332747937223930
  0.1472357769520955  0.4566569294293030  0.1333227738438875
  0.1487711446498164  0.1269470829690463  0.1333003688535088
  0.9821945681353007  0.1269426548735801  0.1333013787073559
  0.2306297222961111  0.2901472030526824  0.1332730407468602
  0.0655346298176898  0.2912901145660327  0.1333398721618367
  0.8152364037588837  0.4579750829614270  0.1333845561771855
  0.4853964119333203  0.4559408192767345  0.1339252334428036
  0.4007516965766419  0.2905372266830460  0.1334613775040549
  0.6458772370058525  0.4558166397078975  0.1338720360487936
  0.6491386915737630  0.1261923330505297  0.1333895046283975
  0.4819513088617174  0.1262689217088197  0.1333615079796680
  0.7304680329230064  0.2903739310278819  0.1334497305149672
  0.5655926910564064  0.2897792461721243  0.1326351027938473
  0.3158791641695630  0.4580605782982828  0.1334062796168809
  0.7335023119857385  0.9560300453849770  0.1336171642688052
  0.6514823645652220  0.7888558268916900  0.1338237827493170
  0.8971826250321258  0.9570291912436507  0.1334140685254910
  0.8983510423843466  0.6266492824961889  0.1334956649880085
  0.7319949756340773  0.6283498520690296  0.1338797116865166
  0.9807587776779922  0.7900582084781804  0.1334082634496368
  0.8164102354111048  0.7917601167713760  0.1326268841682684
  0.5654469186143927  0.9572979741078574  0.1333935033542018
  0.2336704190104434  0.9571142950265632  0.1334390415743738
  0.1501182039906948  0.7900998388558260  0.1334620217042627
  0.3973474176536999  0.9562600298554492  0.1336110022304939
  0.3989326307693731  0.6286131102727419  0.1338453239585034
  0.2326165982514034  0.6267449001965887  0.1335495893245426
  0.4792670213282426  0.7890807463757293  0.1338136219191161
  0.3144347899179397  0.7919523167438832  0.1324973170380929
  0.0654357048759882  0.9580745979558035  0.1333268862293182
  0.5642471109799795  0.6246815729903831  0.1366673539286995
 
  0.00000000E+00  0.00000000E+00  0.00000000E+00
  0.00000000E+00  0.00000000E+00  0.00000000E+00
  0.00000000E+00  0.00000000E+00  0.00000000E+00
  0.00000000E+00  0.00000000E+00  0.00000000E+00
  0.00000000E+00  0.00000000E+00  0.00000000E+00
  0.00000000E+00  0.00000000E+00  0.00000000E+00
  0.00000000E+00  0.00000000E+00  0.00000000E+00
  0.00000000E+00  0.00000000E+00  0.00000000E+00
  0.00000000E+00  0.00000000E+00  0.00000000E+00
  0.00000000E+00  0.00000000E+00  0.00000000E+00
  0.00000000E+00  0.00000000E+00  0.00000000E+00
  0.00000000E+00  0.00000000E+00  0.00000000E+00
  0.00000000E+00  0.00000000E+00  0.00000000E+00
  0.00000000E+00  0.00000000E+00  0.00000000E+00
  0.00000000E+00  0.00000000E+00  0.00000000E+00
  0.00000000E+00  0.00000000E+00  0.00000000E+00
  0.00000000E+00  0.00000000E+00  0.00000000E+00
  0.00000000E+00  0.00000000E+00  0.00000000E+00
  0.00000000E+00  0.00000000E+00  0.00000000E+00
  0.00000000E+00  0.00000000E+00  0.00000000E+00
  0.00000000E+00  0.00000000E+00  0.00000000E+00
  0.00000000E+00  0.00000000E+00  0.00000000E+00
  0.00000000E+00  0.00000000E+00  0.00000000E+00
  0.00000000E+00  0.00000000E+00  0.00000000E+00
  0.00000000E+00  0.00000000E+00  0.00000000E+00
  0.00000000E+00  0.00000000E+00  0.00000000E+00
  0.00000000E+00  0.00000000E+00  0.00000000E+00
  0.00000000E+00  0.00000000E+00  0.00000000E+00
  0.00000000E+00  0.00000000E+00  0.00000000E+00
  0.00000000E+00  0.00000000E+00  0.00000000E+00
  0.00000000E+00  0.00000000E+00  0.00000000E+00
  0.00000000E+00  0.00000000E+00  0.00000000E+00
  0.00000000E+00  0.00000000E+00  0.00000000E+00
  0.00000000E+00  0.00000000E+00  0.00000000E+00
  0.00000000E+00  0.00000000E+00  0.00000000E+00
  0.00000000E+00  0.00000000E+00  0.00000000E+00
  0.00000000E+00  0.00000000E+00  0.00000000E+00
  0.00000000E+00  0.00000000E+00  0.00000000E+00
  0.00000000E+00  0.00000000E+00  0.00000000E+00
  0.00000000E+00  0.00000000E+00  0.00000000E+00
  0.00000000E+00  0.00000000E+00  0.00000000E+00
  0.00000000E+00  0.00000000E+00  0.00000000E+00
  0.00000000E+00  0.00000000E+00  0.00000000E+00
  0.00000000E+00  0.00000000E+00  0.00000000E+00
  0.00000000E+00  0.00000000E+00  0.00000000E+00
  0.00000000E+00  0.00000000E+00  0.00000000E+00
  0.00000000E+00  0.00000000E+00  0.00000000E+00
  0.00000000E+00  0.00000000E+00  0.00000000E+00
  0.00000000E+00  0.00000000E+00  0.00000000E+00
  0.00000000E+00  0.00000000E+00  0.00000000E+00
  0.00000000E+00  0.00000000E+00  0.00000000E+00
  0.00000000E+00  0.00000000E+00  0.00000000E+00
  0.00000000E+00  0.00000000E+00  0.00000000E+00
  0.00000000E+00  0.00000000E+00  0.00000000E+00
  0.00000000E+00  0.00000000E+00  0.00000000E+00
  0.00000000E+00  0.00000000E+00  0.00000000E+00
  0.00000000E+00  0.00000000E+00  0.00000000E+00
