C  N  Ag                                
   1.00000000000000     
    13.6563478210394997    0.0000000000000000    0.0000000000000000
     0.0000000000000000   10.5920259994558119    0.0000000000000000
     0.0000000000000000    0.0000000000000000   15.0000000000000000
   C    N    Ag
    24    32     3
Direct
  0.0679200703175976  0.3838881160189226  0.2387327884777674
  0.9767209152607678  0.2161674809969618  0.1676814416743412
  0.2271507877240241  0.3927749303874034  0.2081749303874361
  0.8179017751787789  0.5785217941006137  0.1941423921365488
  0.1465948081448014  0.2520310929467484  0.1258881901757192
  0.9037520131793243  0.3817497460639578  0.2352644722160719
  0.5686267927168995  0.3802844437053233  0.2442067167761535
  0.4782184925505724  0.2155476217443421  0.1715832610487152
  0.7272990912474304  0.3951188187318701  0.2128617466851654
  0.3115720311239367  0.5821284281964122  0.1954308405847441
  0.6476690619464026  0.2558091824149689  0.1283260783553140
  0.4023381050342226  0.3828129175151419  0.2347684956517092
  0.8193015197239709  0.8794300467630096  0.0332601595195839
  0.7301119398203144  0.7114709747587075  0.1056767984601009
  0.9785372019723555  0.8915529885858057  0.0633636416036831
  0.0650800626558015  0.0804646522302364  0.0806274647393751
  0.8994100118364488  0.7489389016502461  0.1462069395048491
  0.6554357003633912  0.8804307510981801  0.0443935668929855
  0.3199130144327222  0.8889054391068062  0.0403260683033482
  0.2269820150935408  0.7171325592360963  0.1047160935853778
  0.4791799641017783  0.8959079649937560  0.0744529897307051
  0.5699551906843975  0.0796050108281267  0.0878676299194780
  0.3911437168962910  0.7612815157029066  0.1594080632080954
  0.1557417393192609  0.8851970801232657  0.0392558131738468
  0.9848243645418925  0.4359785786698097  0.2669081368033224
  0.8957424548248061  0.2634526172937819  0.2038452411445545
  0.1563376028776966  0.4237092927106202  0.2648858895596311
  0.1455378980712930  0.1514973883960543  0.0733008171629293
  0.9801804219770412  0.1080132908059841  0.1222536220919732
  0.2271386544372526  0.3218401167123194  0.1357662084256614
  0.0638505097267409  0.2855854225212218  0.1758107790940844
  0.8184248547429182  0.4567853233744247  0.2318278935833278
  0.4843902910921447  0.4309190585898796  0.2730707090537001
  0.3965819895179610  0.2644093190989907  0.2033080589457076
  0.6560641663940578  0.4201627892821505  0.2716325188722994
  0.6480534131721244  0.1539957048456313  0.0766384319948394
  0.4862284939371822  0.1038021354897832  0.1320195219602133
  0.7265023657583179  0.3278047234555393  0.1384649960489704
  0.5646088534813457  0.2880444918215933  0.1780097474604942
  0.3176744354945235  0.4572311227476973  0.2269217632645811
  0.7356086578483106  0.9339150081749671  0.0097234684931870
  0.6475684959862300  0.7606863673672477  0.0744641511764280
  0.9072116269310065  0.9206315601558598  0.0067881326011917
  0.8976306638413718  0.6506394414735599  0.2014128651814653
  0.7337236842636480  0.6039336294801336  0.1513492775817605
  0.9785076988613561  0.8208109589671215  0.1365377750646084
  0.8172811814430617  0.7790629031505799  0.0945038215689057
  0.5716612599382367  0.9547296087237529  0.0561325105745996
  0.2384829816551667  0.9403011791135973  0.0102199490060843
  0.1489923065826647  0.7626921011017493  0.0641649165312705
  0.4105485299483388  0.9229417154747330  0.0155898819013300
  0.3859661244454772  0.6622280621403941  0.2144100919538094
  0.2329257215866274  0.6051049846509745  0.1450358655233364
  0.4730473438216099  0.8297523133183361  0.1513110321846419
  0.3124544507789639  0.7931119740588604  0.1059751859275475
  0.0692242706474684  0.9566367400335762  0.0466612207624033
  0.5727393019022757  0.8446877861702959  0.2754488942735129
  0.6669998744555391  0.7335711000786368  0.4121707728977914
  0.5059435154995156  0.6248484343153564  0.3333154315914778
 
  0.00000000E+00  0.00000000E+00  0.00000000E+00
  0.00000000E+00  0.00000000E+00  0.00000000E+00
  0.00000000E+00  0.00000000E+00  0.00000000E+00
  0.00000000E+00  0.00000000E+00  0.00000000E+00
  0.00000000E+00  0.00000000E+00  0.00000000E+00
  0.00000000E+00  0.00000000E+00  0.00000000E+00
  0.00000000E+00  0.00000000E+00  0.00000000E+00
  0.00000000E+00  0.00000000E+00  0.00000000E+00
  0.00000000E+00  0.00000000E+00  0.00000000E+00
  0.00000000E+00  0.00000000E+00  0.00000000E+00
  0.00000000E+00  0.00000000E+00  0.00000000E+00
  0.00000000E+00  0.00000000E+00  0.00000000E+00
  0.00000000E+00  0.00000000E+00  0.00000000E+00
  0.00000000E+00  0.00000000E+00  0.00000000E+00
  0.00000000E+00  0.00000000E+00  0.00000000E+00
  0.00000000E+00  0.00000000E+00  0.00000000E+00
  0.00000000E+00  0.00000000E+00  0.00000000E+00
  0.00000000E+00  0.00000000E+00  0.00000000E+00
  0.00000000E+00  0.00000000E+00  0.00000000E+00
  0.00000000E+00  0.00000000E+00  0.00000000E+00
  0.00000000E+00  0.00000000E+00  0.00000000E+00
  0.00000000E+00  0.00000000E+00  0.00000000E+00
  0.00000000E+00  0.00000000E+00  0.00000000E+00
  0.00000000E+00  0.00000000E+00  0.00000000E+00
  0.00000000E+00  0.00000000E+00  0.00000000E+00
  0.00000000E+00  0.00000000E+00  0.00000000E+00
  0.00000000E+00  0.00000000E+00  0.00000000E+00
  0.00000000E+00  0.00000000E+00  0.00000000E+00
  0.00000000E+00  0.00000000E+00  0.00000000E+00
  0.00000000E+00  0.00000000E+00  0.00000000E+00
  0.00000000E+00  0.00000000E+00  0.00000000E+00
  0.00000000E+00  0.00000000E+00  0.00000000E+00
  0.00000000E+00  0.00000000E+00  0.00000000E+00
  0.00000000E+00  0.00000000E+00  0.00000000E+00
  0.00000000E+00  0.00000000E+00  0.00000000E+00
  0.00000000E+00  0.00000000E+00  0.00000000E+00
  0.00000000E+00  0.00000000E+00  0.00000000E+00
  0.00000000E+00  0.00000000E+00  0.00000000E+00
  0.00000000E+00  0.00000000E+00  0.00000000E+00
  0.00000000E+00  0.00000000E+00  0.00000000E+00
  0.00000000E+00  0.00000000E+00  0.00000000E+00
  0.00000000E+00  0.00000000E+00  0.00000000E+00
  0.00000000E+00  0.00000000E+00  0.00000000E+00
  0.00000000E+00  0.00000000E+00  0.00000000E+00
  0.00000000E+00  0.00000000E+00  0.00000000E+00
  0.00000000E+00  0.00000000E+00  0.00000000E+00
  0.00000000E+00  0.00000000E+00  0.00000000E+00
  0.00000000E+00  0.00000000E+00  0.00000000E+00
  0.00000000E+00  0.00000000E+00  0.00000000E+00
  0.00000000E+00  0.00000000E+00  0.00000000E+00
  0.00000000E+00  0.00000000E+00  0.00000000E+00
  0.00000000E+00  0.00000000E+00  0.00000000E+00
  0.00000000E+00  0.00000000E+00  0.00000000E+00
  0.00000000E+00  0.00000000E+00  0.00000000E+00
  0.00000000E+00  0.00000000E+00  0.00000000E+00
  0.00000000E+00  0.00000000E+00  0.00000000E+00
  0.00000000E+00  0.00000000E+00  0.00000000E+00
  0.00000000E+00  0.00000000E+00  0.00000000E+00
  0.00000000E+00  0.00000000E+00  0.00000000E+00
