C  N  Ag
 1.0000000000000000
    13.7180000669074804    0.0000000000000000    0.0000000000000000
     0.0000000000000000   10.9129329202878509    0.0000000000000000
     0.0000000000000000    0.0000000000000000   15.0000000000000000
 C   N   Ag 
  24  32   3
Cartesian
  0.9643622611008251  4.1771776451834279  3.4743986234803006
 13.4434149131292049  2.3450754573223200  2.5145018099053664
  3.1229639703287688  4.3180557914072377  2.9383919529691096
 11.3381434737624733  6.2899085050678103  2.9480716444853323
  2.0207874734587272  2.7371587543245330  1.8098677509587866
 12.4447360277318779  4.1345084671773602  3.4563504741648692
  7.7888125265681731  4.2834246593296630  3.5945433715876964
  6.5476266504376630  2.4438826613497744  2.6593014000514348
 10.0128334038411566  4.3461532578392070  3.1576262363573551
  4.2381870229296155  6.3753734699717182  2.7863982524822597
  8.8733671625972175  2.7991667045815203  2.0008553024401303
  5.5078636602574775  4.2866995428206653  3.4200404643721729
 11.2435188825179306  9.6553050451168847  0.7419696029688195
 10.0424652826486405  7.8655761806073778  2.0091489071536461
 13.4577947767456116  9.7331395933201659  1.0569358085385570
  0.9165603540047801  0.8598035452185063  1.2581712512273910
 12.4558626590928494  8.1031151780943436  2.2264839224678323
  9.0030110737639948  9.7267315283291289  1.0482782112085349
  4.3747248953137303  9.7748635926338334  0.6822052332588390
  3.1114916133209189  7.8617771886284125  1.4710341355211820
  6.5316877843149159  9.8681382116727612  1.2858446239650270
  7.7736078871704732  0.9213192540271332  1.4942507705186940
  5.2854025641083489  8.3567912091205230  2.4241090757698096
  2.1375595289779046  9.6983232510518942  0.6134396038063905
 13.5562520140392806  4.7141301655236836  3.9212589552550736
 12.3301121112843681  2.8732446922635551  3.0146495151770023
  2.1687591085393030  4.6539359281132411  3.7990359671455831
  1.9881393683318891  1.6354878571819507  1.0689016889570460
 13.5077182416937180  1.1495151901024419  1.9296832240930635
  3.1147120356044957  3.5016655179349310  1.8949168312365421
  0.9045819944938877  3.1075554695800403  2.5699761941028672
 11.2896378782008853  4.9532315876824002  3.4064558398435367
  6.6295808970022101  4.8821006152627495  3.9147490436115859
  5.4278581691205945  2.9876452757037599  3.1010616206652690
  9.0052573405437979  4.7215078386250724  3.9913513990322231
  8.8550485977468920  1.6768291211510971  1.2987240416215575
  6.6247195389165947  1.2409477088095233  2.1109533699929535
  9.9655150573136506  3.5531602711458747  2.0992941601649671
  7.7415945305733578  3.1978759814378717  2.7295829501812063
  4.3501737983505961  5.0373399688307181  3.1952812017233088
 10.0766922082786987 10.2323433714055021  0.4425523906245585
  8.9280213035502243  8.5378346999805359  1.6938253716765961
 12.4181371495916881 10.1151518075457396  0.3136612683692235
 12.4781832396661869  6.9754161113508779  2.9324358371469961
 10.0075275125724872  6.6827144174249318  2.8202930022098496
 13.5340405393411523  8.8590282499243163  2.0566256935953420
 11.2671205062265400  8.5350249769017772  1.6018111675607474
  7.8114353907541911 10.4868846567752065  1.0905636480902670
  3.2666593336992480 10.3202106963568472  0.2273959014542640
  2.0491701044342863  8.3735355119786483  0.8871301875977835
  5.6164315764158186 10.1893934007687026  0.3910957735096620
  5.1957301330154051  7.2540137235665076  3.1868841009928635
  3.2072301925480899  6.6296359280109298  1.9822145272706027
  6.3938290813689829  9.1073965455546073  2.3988293186524952
  4.2554185282168788  8.6913922947502318  1.5872494407940800
  0.9597169778938730 10.4417270988444475  0.7770836783964615
  7.9366634769854842  8.5114013901504446  3.5784624511513727
  8.9526690820840162  6.6853904158467561  4.6797127004561458
  6.6399714975185606  6.8027590017150059  4.4815215540787907
