C  N  Cu                                
   1.00000000000000     
    14.2060643321502518    0.0000000000000000    0.0000000000000000
     0.0000000000000000   12.3019443186819153    0.0000000000000000
     0.0000000000000000    0.0000000000000000   15.0000000000000000
   C    N    Cu
    24    32     1
Direct
  0.0655292353182304  0.4042822370992525  0.1333288305609770
  0.9807350631700302  0.2344865338427908  0.1333125051267245
  0.2259684878965871  0.3980074225110570  0.1333269271332966
  0.8156771337285988  0.5759815015502028  0.1335327064862284
  0.1503273912205501  0.2344890720526678  0.1333075554968204
  0.9051056678550609  0.3980121540895922  0.1333288833343715
  0.5656360002622165  0.4006045956051949  0.1332929024002354
  0.4800327488980258  0.2333991499145185  0.1331911817928244
  0.7269995938926996  0.3981660548265822  0.1334914255837560
  0.3153034485863557  0.5760444277245753  0.1335270456419622
  0.6511384531608186  0.2333288563194387  0.1331873395875576
  0.4041794613359215  0.3983092863173070  0.1335289106496518
  0.8159318307932253  0.9052412273823194  0.1332217853932463
  0.7331268339572716  0.7361338835184839  0.1333676162969724
  0.9765340446287141  0.8984925091243952  0.1333099707805161
  0.9013009430639585  0.7342841766041843  0.1331739719382199
  0.6543607670209042  0.8986939394456499  0.1335190790019993
  0.3149638617901402  0.9054468310618091  0.1332005444508724
  0.2295818806349672  0.7343646440929206  0.1331601202533008
  0.4765211772913958  0.8988957619345967  0.1335004896963241
  0.3976540774528132  0.7364131166989836  0.1332901140937253
  0.1543510352335673  0.8985506833632115  0.1333256311241655
  0.0654762927396249  0.0768984747322534  0.1333136696959443
  0.5655251728559350  0.0763627377428904  0.1333140680629583
  0.9838609674801830  0.4567323018892182  0.1333165680037283
  0.9005132340037889  0.2900521228720407  0.1332801145830018
  0.1472189140198239  0.4567308501562692  0.1333043397160907
  0.1487997824565284  0.1268294340953915  0.1332869614345711
  0.9821705298138355  0.1268196441570950  0.1332952705687092
  0.2305937317761817  0.2900446643211652  0.1332835950808331
  0.0655312614365542  0.2912310278165080  0.1333495833774947
  0.8152145054169964  0.4579235015147987  0.1333704789895265
  0.4853790593679719  0.4559622234042706  0.1337276061090265
  0.4007657745551683  0.2904551335437660  0.1335970903342911
  0.6458903953161865  0.4558343489891072  0.1336886147383041
  0.6491587421541922  0.1261185569482208  0.1334195578945767
  0.4819270330810781  0.1261804340620785  0.1334083282990264
  0.7304468825505950  0.2902908148645693  0.1335785915094476
  0.5655901344030312  0.2896334620852201  0.1325923867727710
  0.3159016741580700  0.4580061436574496  0.1333878557858554
  0.7335511726714614  0.9561399813955660  0.1336172866646876
  0.6515694450185592  0.7888638885502957  0.1337221444832295
  0.8972179965155789  0.9570914389158176  0.1334410680070093
  0.8983484055686688  0.6265339131900589  0.1335127946659611
  0.7319430470737558  0.6282973153530804  0.1338484706224179
  0.9807177503552822  0.7899279148714484  0.1333856367709245
  0.8164440206472179  0.7917052910561893  0.1326533052044994
  0.5654638274956909  0.9572981471020370  0.1333512646307469
  0.2336551242377425  0.9571933201509424  0.1334688227344571
  0.1501618430192124  0.7899807942742925  0.1334386568143060
  0.3973339240036182  0.9563536286676282  0.1336392664316008
  0.3990020635539580  0.6285532890442553  0.1338115377504820
  0.2326386409325281  0.6266087234314952  0.1335568409703001
  0.4791953283650443  0.7890861057989440  0.1336665982973102
  0.3144165863808226  0.7918918277217628  0.1325320948594140
  0.0654438025059108  0.9578774277211792  0.1333112310941118
  0.5641302398706216  0.6243656322285176  0.1373127622186772
 
  0.00000000E+00  0.00000000E+00  0.00000000E+00
  0.00000000E+00  0.00000000E+00  0.00000000E+00
  0.00000000E+00  0.00000000E+00  0.00000000E+00
  0.00000000E+00  0.00000000E+00  0.00000000E+00
  0.00000000E+00  0.00000000E+00  0.00000000E+00
  0.00000000E+00  0.00000000E+00  0.00000000E+00
  0.00000000E+00  0.00000000E+00  0.00000000E+00
  0.00000000E+00  0.00000000E+00  0.00000000E+00
  0.00000000E+00  0.00000000E+00  0.00000000E+00
  0.00000000E+00  0.00000000E+00  0.00000000E+00
  0.00000000E+00  0.00000000E+00  0.00000000E+00
  0.00000000E+00  0.00000000E+00  0.00000000E+00
  0.00000000E+00  0.00000000E+00  0.00000000E+00
  0.00000000E+00  0.00000000E+00  0.00000000E+00
  0.00000000E+00  0.00000000E+00  0.00000000E+00
  0.00000000E+00  0.00000000E+00  0.00000000E+00
  0.00000000E+00  0.00000000E+00  0.00000000E+00
  0.00000000E+00  0.00000000E+00  0.00000000E+00
  0.00000000E+00  0.00000000E+00  0.00000000E+00
  0.00000000E+00  0.00000000E+00  0.00000000E+00
  0.00000000E+00  0.00000000E+00  0.00000000E+00
  0.00000000E+00  0.00000000E+00  0.00000000E+00
  0.00000000E+00  0.00000000E+00  0.00000000E+00
  0.00000000E+00  0.00000000E+00  0.00000000E+00
  0.00000000E+00  0.00000000E+00  0.00000000E+00
  0.00000000E+00  0.00000000E+00  0.00000000E+00
  0.00000000E+00  0.00000000E+00  0.00000000E+00
  0.00000000E+00  0.00000000E+00  0.00000000E+00
  0.00000000E+00  0.00000000E+00  0.00000000E+00
  0.00000000E+00  0.00000000E+00  0.00000000E+00
  0.00000000E+00  0.00000000E+00  0.00000000E+00
  0.00000000E+00  0.00000000E+00  0.00000000E+00
  0.00000000E+00  0.00000000E+00  0.00000000E+00
  0.00000000E+00  0.00000000E+00  0.00000000E+00
  0.00000000E+00  0.00000000E+00  0.00000000E+00
  0.00000000E+00  0.00000000E+00  0.00000000E+00
  0.00000000E+00  0.00000000E+00  0.00000000E+00
  0.00000000E+00  0.00000000E+00  0.00000000E+00
  0.00000000E+00  0.00000000E+00  0.00000000E+00
  0.00000000E+00  0.00000000E+00  0.00000000E+00
  0.00000000E+00  0.00000000E+00  0.00000000E+00
  0.00000000E+00  0.00000000E+00  0.00000000E+00
  0.00000000E+00  0.00000000E+00  0.00000000E+00
  0.00000000E+00  0.00000000E+00  0.00000000E+00
  0.00000000E+00  0.00000000E+00  0.00000000E+00
  0.00000000E+00  0.00000000E+00  0.00000000E+00
  0.00000000E+00  0.00000000E+00  0.00000000E+00
  0.00000000E+00  0.00000000E+00  0.00000000E+00
  0.00000000E+00  0.00000000E+00  0.00000000E+00
  0.00000000E+00  0.00000000E+00  0.00000000E+00
  0.00000000E+00  0.00000000E+00  0.00000000E+00
  0.00000000E+00  0.00000000E+00  0.00000000E+00
  0.00000000E+00  0.00000000E+00  0.00000000E+00
  0.00000000E+00  0.00000000E+00  0.00000000E+00
  0.00000000E+00  0.00000000E+00  0.00000000E+00
  0.00000000E+00  0.00000000E+00  0.00000000E+00
  0.00000000E+00  0.00000000E+00  0.00000000E+00
