C  N  Ag Cu Pd                          
   1.00000000000000     
    13.6917100646646528    0.0000000000000000    0.0000000000000000
     0.0000000000000000   10.8394673622520337    0.0000000000000000
     0.0000000000000000    0.0000000000000000   15.0000000000000000
   C    N    Ag   Cu   Pd
    24    32     1     1     1
Direct
  0.0714128216779160  0.3875632076147614  0.2297438889541446
  0.9807836332075341  0.2197059299323776  0.1650742795011401
  0.2303514164236141  0.3954033541821280  0.1987676962500603
  0.8187347394216451  0.5812846700483079  0.1882317911351027
  0.1501554042027742  0.2502327685613452  0.1227223252423694
  0.9077047235932119  0.3867774558688208  0.2249907768133136
  0.5700200935147715  0.3924233507357963  0.2346852489602330
  0.4783042905042911  0.2220879445170993  0.1770988166683650
  0.7309067639121173  0.3971315927670623  0.2048508385601364
  0.3118205102586257  0.5843446692686938  0.1865173886118764
  0.6458846067152182  0.2576453191265233  0.1266041073321060
  0.4053717568571045  0.3938170272652211  0.2285949202373969
  0.8157069474921557  0.8899285774667575  0.0436446842424907
  0.7273179526535682  0.7219047643897381  0.1113834906421552
  0.9761963555640404  0.8973244516999276  0.0690217739383129
  0.0672853377600084  0.0803863896649718  0.0830095378043966
  0.8982707652306894  0.7527358505011486  0.1477487046253499
  0.6518193547115708  0.8900568861674546  0.0550210567774936
  0.3165097826885867  0.8909579379249170  0.0398265222097720
  0.2253476322936016  0.7204712713936623  0.1013831172093950
  0.4741378218688566  0.9029342490357797  0.0775728871602521
  0.5648272512756051  0.0847386803417874  0.0929848206529170
  0.3897011105861953  0.7627240693839293  0.1535342288205090
  0.1526024932102151  0.8867848461501686  0.0412249210670228
  0.9885904936533074  0.4407405233546794  0.2554513179663838
  0.8994088288091313  0.2693025351810778  0.1973615906128476
  0.1591831202754111  0.4288695663884051  0.2541146363045451
  0.1477547549226206  0.1482887004718982  0.0735199760668085
  0.9842396311465238  0.1097763475781999  0.1255289841951516
  0.2308222800894788  0.3183143115754684  0.1301309644819005
  0.0675543574668939  0.2876178445187832  0.1706034511570772
  0.8214623986531775  0.4584658007607054  0.2207038521612958
  0.4879829205206350  0.4521406107884297  0.2537731742692637
  0.3991328983947424  0.2706529501566931  0.2138624449240524
  0.6599144206815216  0.4264276472278605  0.2634392484295822
  0.6433034174124755  0.1548945000949256  0.0786810743392795
  0.4827311100228228  0.1118358423580781  0.1380977017017859
  0.7257314966678996  0.3274255677702601  0.1324094907736263
  0.5648326761548924  0.2925655797965104  0.1768964321659973
  0.3197191905373796  0.4613906077778145  0.2140095649025523
  0.7319121828102728  0.9437830098421226  0.0219495326876489
  0.6445136636737564  0.7722976063203454  0.0831338987537464
  0.9030358629340618  0.9300078880053899  0.0157819217083396
  0.8988317403028161  0.6498276667282187  0.1959765315807173
  0.7330538662183623  0.6112407451305785  0.1502354036420730
  0.9778720538157737  0.8223187968165032  0.1390067135133066
  0.8141122572998550  0.7890654816651005  0.1021782194891148
  0.5664895987122349  0.9618055310833845  0.0621619749159266
  0.2340555183936889  0.9415882833775654  0.0116001344096557
  0.1450830389116146  0.7676157269409768  0.0658205468787129
  0.4057799419489761  0.9316775381324122  0.0182146778156537
  0.3861206913721457  0.6617206644897120  0.2049805140765074
  0.2311402455687662  0.6098872637769039  0.1399489008280706
  0.4692610097557058  0.8323093943886002  0.1500288315288255
  0.3107798825147768  0.7923416724759752  0.1001803626220180
  0.0673887088530334  0.9582885034568990  0.0500643662686902
  0.6133403949956530  0.7578767062835436  0.4220618913662909
  0.6607820190880671  0.5603535643045042  0.3523430882559240
  0.5000706416719785  0.6370091476681145  0.3046884032769754
 
  0.00000000E+00  0.00000000E+00  0.00000000E+00
  0.00000000E+00  0.00000000E+00  0.00000000E+00
  0.00000000E+00  0.00000000E+00  0.00000000E+00
  0.00000000E+00  0.00000000E+00  0.00000000E+00
  0.00000000E+00  0.00000000E+00  0.00000000E+00
  0.00000000E+00  0.00000000E+00  0.00000000E+00
  0.00000000E+00  0.00000000E+00  0.00000000E+00
  0.00000000E+00  0.00000000E+00  0.00000000E+00
  0.00000000E+00  0.00000000E+00  0.00000000E+00
  0.00000000E+00  0.00000000E+00  0.00000000E+00
  0.00000000E+00  0.00000000E+00  0.00000000E+00
  0.00000000E+00  0.00000000E+00  0.00000000E+00
  0.00000000E+00  0.00000000E+00  0.00000000E+00
  0.00000000E+00  0.00000000E+00  0.00000000E+00
  0.00000000E+00  0.00000000E+00  0.00000000E+00
  0.00000000E+00  0.00000000E+00  0.00000000E+00
  0.00000000E+00  0.00000000E+00  0.00000000E+00
  0.00000000E+00  0.00000000E+00  0.00000000E+00
  0.00000000E+00  0.00000000E+00  0.00000000E+00
  0.00000000E+00  0.00000000E+00  0.00000000E+00
  0.00000000E+00  0.00000000E+00  0.00000000E+00
  0.00000000E+00  0.00000000E+00  0.00000000E+00
  0.00000000E+00  0.00000000E+00  0.00000000E+00
  0.00000000E+00  0.00000000E+00  0.00000000E+00
  0.00000000E+00  0.00000000E+00  0.00000000E+00
  0.00000000E+00  0.00000000E+00  0.00000000E+00
  0.00000000E+00  0.00000000E+00  0.00000000E+00
  0.00000000E+00  0.00000000E+00  0.00000000E+00
  0.00000000E+00  0.00000000E+00  0.00000000E+00
  0.00000000E+00  0.00000000E+00  0.00000000E+00
  0.00000000E+00  0.00000000E+00  0.00000000E+00
  0.00000000E+00  0.00000000E+00  0.00000000E+00
  0.00000000E+00  0.00000000E+00  0.00000000E+00
  0.00000000E+00  0.00000000E+00  0.00000000E+00
  0.00000000E+00  0.00000000E+00  0.00000000E+00
  0.00000000E+00  0.00000000E+00  0.00000000E+00
  0.00000000E+00  0.00000000E+00  0.00000000E+00
  0.00000000E+00  0.00000000E+00  0.00000000E+00
  0.00000000E+00  0.00000000E+00  0.00000000E+00
  0.00000000E+00  0.00000000E+00  0.00000000E+00
  0.00000000E+00  0.00000000E+00  0.00000000E+00
  0.00000000E+00  0.00000000E+00  0.00000000E+00
  0.00000000E+00  0.00000000E+00  0.00000000E+00
  0.00000000E+00  0.00000000E+00  0.00000000E+00
  0.00000000E+00  0.00000000E+00  0.00000000E+00
  0.00000000E+00  0.00000000E+00  0.00000000E+00
  0.00000000E+00  0.00000000E+00  0.00000000E+00
  0.00000000E+00  0.00000000E+00  0.00000000E+00
  0.00000000E+00  0.00000000E+00  0.00000000E+00
  0.00000000E+00  0.00000000E+00  0.00000000E+00
  0.00000000E+00  0.00000000E+00  0.00000000E+00
  0.00000000E+00  0.00000000E+00  0.00000000E+00
  0.00000000E+00  0.00000000E+00  0.00000000E+00
  0.00000000E+00  0.00000000E+00  0.00000000E+00
  0.00000000E+00  0.00000000E+00  0.00000000E+00
  0.00000000E+00  0.00000000E+00  0.00000000E+00
  0.00000000E+00  0.00000000E+00  0.00000000E+00
  0.00000000E+00  0.00000000E+00  0.00000000E+00
  0.00000000E+00  0.00000000E+00  0.00000000E+00
