C  N  Au Ag                             
   1.00000000000000     
    12.9452064366847797    0.0000000000000000    0.0000000000000000
     0.0000000000000000   11.6648073638971166    0.0000000000000000
     0.0000000000000000    0.0000000000000000   15.0000000000000000
   C    N    Au   Ag
    24    32     1     1
Direct
  0.0832657962205526  0.3980291460279081  0.1183394698778125
  0.9767846941780249  0.2303939768068644  0.1346353013045723
  0.2319596932150034  0.4002077343923109  0.1972637954796960
  0.8277368188114969  0.5774596293837735  0.0561873886189158
  0.1365551360301405  0.2408009622903300  0.2176018338434881
  0.9186911616002389  0.3929703756484966  0.0700780665682166
  0.5816420700517654  0.3893567138922932  0.1343083146183379
  0.4660124311999732  0.2365100164838281  0.0985325452870644
  0.7340812312618187  0.3966168187953578  0.0575684129323834
  0.3324535099732281  0.5773228247423775  0.2109284567296302
  0.6364650622636466  0.2389536694735858  0.0317681234529633
  0.4147800678027854  0.3926934432150723  0.1765833449612755
  0.7894113536910166  0.8985621239632809  0.1395004199620026
  0.7382490112266827  0.7429274015603926  0.0388350632416348
  0.9534823055049482  0.8931674219113964  0.1898134901314548
  0.0459519549741794  0.0758316016447867  0.2021990437270660
  0.8954248258906787  0.7309264160616085  0.1257877979630132
  0.6413855768608163  0.9010295272607550  0.0591283352368802
  0.2899016258139233  0.8934695135114001  0.1235974504843370
  0.2384110577252109  0.7396665742463822  0.2258268566909872
  0.4557894882924287  0.8939773865700448  0.0775652678020360
  0.5406366586850954  0.0771422311949662  0.0426064902264192
  0.4049664744481198  0.7359550608461223  0.1523382293896249
  0.1400830868868502  0.8960023686713778  0.2018315728006341
  0.0112059776392780  0.4442438718756259  0.0661639944137759
  0.8990994871698463  0.2866671516106948  0.0973583692182284
  0.1736237479667195  0.4495805880535045  0.1349494685211836
  0.1230769289281250  0.1321234273369441  0.2432822088634177
  0.9723530339678502  0.1190347872991707  0.1506836350646249
  0.2172563075217532  0.3045596236631228  0.2438878090118162
  0.0655188725984177  0.2907776466421717  0.1582685924712235
  0.8298932598236414  0.4559594227471636  0.0455402027112487
  0.5111096217474193  0.4334579843592638  0.1883650600857899
  0.3888737498952146  0.2966874108932075  0.1339695063450882
  0.6746696418111457  0.4391240092605844  0.1240238840087631
  0.6248513251985131  0.1298088541450551  0.0083960029655925
  0.4570555475325311  0.1279598035124657  0.0760441489730486
  0.7177174182428538  0.3041305279466523  0.0081882470714641
  0.5617720764664913  0.2898719708175523  0.0871899480130980
  0.3309049082843507  0.4560856581206537  0.2099898650860259
  0.6983523922491416  0.9495582637907520  0.1223244477783824
  0.6577879190150172  0.8060422442310249  0.0116075689063838
  0.8613623765702906  0.9455063999732979  0.1910624951267681
  0.8993422337098469  0.6190135150070598  0.1100085716483567
  0.7522290017380678  0.6336683039433769  0.0130888782425082
  0.9718892229195975  0.7852029313990282  0.1658134371593130
  0.8088114123565597  0.7926089730429094  0.0983389402006007
  0.5418742899827572  0.9570592803607250  0.0452466729160214
  0.1975329033872429  0.9419108537237285  0.1368471767900647
  0.1565253177564006  0.8024579771316697  0.2506148866488143
  0.3606686728379893  0.9378034262181276  0.0690491979766969
  0.4131877778682530  0.6256564633160985  0.1711966288974850
  0.2510554125219986  0.6297345169913345  0.2486865560566521
  0.4815271095744020  0.7945244222493884  0.1149899179452412
  0.3115471815954311  0.7912746851545465  0.1691978672738749
  0.0429160170073363  0.9553276094499176  0.2138445988993111
  0.6991893029349184  0.7554356724350327  0.3291665431296781
  0.6793211969901845  0.5808603893821334  0.2291196002490631
 
  0.00000000E+00  0.00000000E+00  0.00000000E+00
  0.00000000E+00  0.00000000E+00  0.00000000E+00
  0.00000000E+00  0.00000000E+00  0.00000000E+00
  0.00000000E+00  0.00000000E+00  0.00000000E+00
  0.00000000E+00  0.00000000E+00  0.00000000E+00
  0.00000000E+00  0.00000000E+00  0.00000000E+00
  0.00000000E+00  0.00000000E+00  0.00000000E+00
  0.00000000E+00  0.00000000E+00  0.00000000E+00
  0.00000000E+00  0.00000000E+00  0.00000000E+00
  0.00000000E+00  0.00000000E+00  0.00000000E+00
  0.00000000E+00  0.00000000E+00  0.00000000E+00
  0.00000000E+00  0.00000000E+00  0.00000000E+00
  0.00000000E+00  0.00000000E+00  0.00000000E+00
  0.00000000E+00  0.00000000E+00  0.00000000E+00
  0.00000000E+00  0.00000000E+00  0.00000000E+00
  0.00000000E+00  0.00000000E+00  0.00000000E+00
  0.00000000E+00  0.00000000E+00  0.00000000E+00
  0.00000000E+00  0.00000000E+00  0.00000000E+00
  0.00000000E+00  0.00000000E+00  0.00000000E+00
  0.00000000E+00  0.00000000E+00  0.00000000E+00
  0.00000000E+00  0.00000000E+00  0.00000000E+00
  0.00000000E+00  0.00000000E+00  0.00000000E+00
  0.00000000E+00  0.00000000E+00  0.00000000E+00
  0.00000000E+00  0.00000000E+00  0.00000000E+00
  0.00000000E+00  0.00000000E+00  0.00000000E+00
  0.00000000E+00  0.00000000E+00  0.00000000E+00
  0.00000000E+00  0.00000000E+00  0.00000000E+00
  0.00000000E+00  0.00000000E+00  0.00000000E+00
  0.00000000E+00  0.00000000E+00  0.00000000E+00
  0.00000000E+00  0.00000000E+00  0.00000000E+00
  0.00000000E+00  0.00000000E+00  0.00000000E+00
  0.00000000E+00  0.00000000E+00  0.00000000E+00
  0.00000000E+00  0.00000000E+00  0.00000000E+00
  0.00000000E+00  0.00000000E+00  0.00000000E+00
  0.00000000E+00  0.00000000E+00  0.00000000E+00
  0.00000000E+00  0.00000000E+00  0.00000000E+00
  0.00000000E+00  0.00000000E+00  0.00000000E+00
  0.00000000E+00  0.00000000E+00  0.00000000E+00
  0.00000000E+00  0.00000000E+00  0.00000000E+00
  0.00000000E+00  0.00000000E+00  0.00000000E+00
  0.00000000E+00  0.00000000E+00  0.00000000E+00
  0.00000000E+00  0.00000000E+00  0.00000000E+00
  0.00000000E+00  0.00000000E+00  0.00000000E+00
  0.00000000E+00  0.00000000E+00  0.00000000E+00
  0.00000000E+00  0.00000000E+00  0.00000000E+00
  0.00000000E+00  0.00000000E+00  0.00000000E+00
  0.00000000E+00  0.00000000E+00  0.00000000E+00
  0.00000000E+00  0.00000000E+00  0.00000000E+00
  0.00000000E+00  0.00000000E+00  0.00000000E+00
  0.00000000E+00  0.00000000E+00  0.00000000E+00
  0.00000000E+00  0.00000000E+00  0.00000000E+00
  0.00000000E+00  0.00000000E+00  0.00000000E+00
  0.00000000E+00  0.00000000E+00  0.00000000E+00
  0.00000000E+00  0.00000000E+00  0.00000000E+00
  0.00000000E+00  0.00000000E+00  0.00000000E+00
  0.00000000E+00  0.00000000E+00  0.00000000E+00
  0.00000000E+00  0.00000000E+00  0.00000000E+00
  0.00000000E+00  0.00000000E+00  0.00000000E+00
