C  N  Cu                                
   1.00000000000000     
    14.2060643321502518    0.0000000000000000    0.0000000000000000
     0.0000000000000000   12.3019443186819153    0.0000000000000000
     0.0000000000000000    0.0000000000000000   15.0000000000000000
   C    N    Cu
    24    32     1
Direct
  0.0655292353182295  0.4042822370992501  0.1333288305609770
  0.9807350631700271  0.2344865338427912  0.1333125051267232
  0.2259684878965883  0.3980074225110606  0.1333269271332938
  0.8156771337286012  0.5759815015501997  0.1335327064862255
  0.1503273912205491  0.2344890720526656  0.1333075554968190
  0.9051056678550603  0.3980121540895896  0.1333288833343723
  0.5656360002622152  0.4006045956051914  0.1332929024002380
  0.4800327488980228  0.2333991499145215  0.1331911817928262
  0.7269995938927024  0.3981660548265817  0.1334914255837527
  0.3153034485863567  0.5760444277245749  0.1335270456419614
  0.6511384531608164  0.2333288563194364  0.1331873395875592
  0.4041794613359250  0.3983092863173072  0.1335289106496523
  0.8159318307932253  0.9052412273823205  0.1332217853932445
  0.7331268339572724  0.7361338835184826  0.1333676162969748
  0.9765340446287173  0.8984925091243954  0.1333099707805188
  0.9013009430639572  0.7342841766041839  0.1331739719382199
  0.6543607670209054  0.8986939394456480  0.1335190790019959
  0.3149638617901376  0.9054468310618120  0.1332005444508724
  0.2295818806349671  0.7343646440929186  0.1331601202533029
  0.4765211772913946  0.8988957619345977  0.1335004896963272
  0.3976540774528128  0.7364131166989846  0.1332901140937269
  0.1543510352335680  0.8985506833632103  0.1333256311241643
  0.0654762927396279  0.0768984747322566  0.1333136696959465
  0.5655251728559324  0.0763627377428935  0.1333140680629606
  0.9838609674801809  0.4567323018892160  0.1333165680037253
  0.9005132340037897  0.2900521228720405  0.1332801145830015
  0.1472189140198234  0.4567308501562715  0.1333043397160922
  0.1487997824565259  0.1268294340953904  0.1332869614345726
  0.9821705298138340  0.1268196441570915  0.1332952705687057
  0.2305937317761813  0.2900446643211683  0.1332835950808327
  0.0655312614365523  0.2912310278165065  0.1333495833774929
  0.8152145054169938  0.4579235015147963  0.1333704789895279
  0.4853790593679730  0.4559622234042692  0.1337276061090285
  0.4007657745551702  0.2904551335437667  0.1335970903342944
  0.6458903953161897  0.4558343489891068  0.1336886147383009
  0.6491587421541927  0.1261185569482200  0.1334195578945760
  0.4819270330810771  0.1261804340620787  0.1334083282990291
  0.7304468825505963  0.2902908148645664  0.1335785915094498
  0.5655901344030297  0.2896334620852233  0.1325923867727677
  0.3159016741580684  0.4580061436574498  0.1333878557858577
  0.7335511726714620  0.9561399813955673  0.1336172866646885
  0.6515694450185610  0.7888638885502989  0.1337221444832285
  0.8972179965155760  0.9570914389158185  0.1334410680070094
  0.8983484055686705  0.6265339131900614  0.1335127946659644
  0.7319430470737578  0.6282973153530779  0.1338484706224161
  0.9807177503552833  0.7899279148714462  0.1333856367709223
  0.8164440206472181  0.7917052910561861  0.1326533052044995
  0.5654638274956896  0.9572981471020372  0.1333512646307472
  0.2336551242377408  0.9571933201509404  0.1334688227344572
  0.1501618430192116  0.7899807942742911  0.1334386568143094
  0.3973339240036160  0.9563536286676261  0.1336392664315983
  0.3990020635539554  0.6285532890442577  0.1338115377504829
  0.2326386409325251  0.6266087234314962  0.1335568409702995
  0.4791953283650452  0.7890861057989409  0.1336665982973136
  0.3144165863808228  0.7918918277217659  0.1325320948594135
  0.0654438025059133  0.9578774277211787  0.1333112310941101
  0.5641302398706183  0.6243656322285178  0.1373127622186763
 
  0.00000000E+00  0.00000000E+00  0.00000000E+00
  0.00000000E+00  0.00000000E+00  0.00000000E+00
  0.00000000E+00  0.00000000E+00  0.00000000E+00
  0.00000000E+00  0.00000000E+00  0.00000000E+00
  0.00000000E+00  0.00000000E+00  0.00000000E+00
  0.00000000E+00  0.00000000E+00  0.00000000E+00
  0.00000000E+00  0.00000000E+00  0.00000000E+00
  0.00000000E+00  0.00000000E+00  0.00000000E+00
  0.00000000E+00  0.00000000E+00  0.00000000E+00
  0.00000000E+00  0.00000000E+00  0.00000000E+00
  0.00000000E+00  0.00000000E+00  0.00000000E+00
  0.00000000E+00  0.00000000E+00  0.00000000E+00
  0.00000000E+00  0.00000000E+00  0.00000000E+00
  0.00000000E+00  0.00000000E+00  0.00000000E+00
  0.00000000E+00  0.00000000E+00  0.00000000E+00
  0.00000000E+00  0.00000000E+00  0.00000000E+00
  0.00000000E+00  0.00000000E+00  0.00000000E+00
  0.00000000E+00  0.00000000E+00  0.00000000E+00
  0.00000000E+00  0.00000000E+00  0.00000000E+00
  0.00000000E+00  0.00000000E+00  0.00000000E+00
  0.00000000E+00  0.00000000E+00  0.00000000E+00
  0.00000000E+00  0.00000000E+00  0.00000000E+00
  0.00000000E+00  0.00000000E+00  0.00000000E+00
  0.00000000E+00  0.00000000E+00  0.00000000E+00
  0.00000000E+00  0.00000000E+00  0.00000000E+00
  0.00000000E+00  0.00000000E+00  0.00000000E+00
  0.00000000E+00  0.00000000E+00  0.00000000E+00
  0.00000000E+00  0.00000000E+00  0.00000000E+00
  0.00000000E+00  0.00000000E+00  0.00000000E+00
  0.00000000E+00  0.00000000E+00  0.00000000E+00
  0.00000000E+00  0.00000000E+00  0.00000000E+00
  0.00000000E+00  0.00000000E+00  0.00000000E+00
  0.00000000E+00  0.00000000E+00  0.00000000E+00
  0.00000000E+00  0.00000000E+00  0.00000000E+00
  0.00000000E+00  0.00000000E+00  0.00000000E+00
  0.00000000E+00  0.00000000E+00  0.00000000E+00
  0.00000000E+00  0.00000000E+00  0.00000000E+00
  0.00000000E+00  0.00000000E+00  0.00000000E+00
  0.00000000E+00  0.00000000E+00  0.00000000E+00
  0.00000000E+00  0.00000000E+00  0.00000000E+00
  0.00000000E+00  0.00000000E+00  0.00000000E+00
  0.00000000E+00  0.00000000E+00  0.00000000E+00
  0.00000000E+00  0.00000000E+00  0.00000000E+00
  0.00000000E+00  0.00000000E+00  0.00000000E+00
  0.00000000E+00  0.00000000E+00  0.00000000E+00
  0.00000000E+00  0.00000000E+00  0.00000000E+00
  0.00000000E+00  0.00000000E+00  0.00000000E+00
  0.00000000E+00  0.00000000E+00  0.00000000E+00
  0.00000000E+00  0.00000000E+00  0.00000000E+00
  0.00000000E+00  0.00000000E+00  0.00000000E+00
  0.00000000E+00  0.00000000E+00  0.00000000E+00
  0.00000000E+00  0.00000000E+00  0.00000000E+00
  0.00000000E+00  0.00000000E+00  0.00000000E+00
  0.00000000E+00  0.00000000E+00  0.00000000E+00
  0.00000000E+00  0.00000000E+00  0.00000000E+00
  0.00000000E+00  0.00000000E+00  0.00000000E+00
  0.00000000E+00  0.00000000E+00  0.00000000E+00
