C  N  Cu                                
   1.00000000000000     
    13.7597036713648766    0.0000000000000000    0.0000000000000000
     0.0000000000000000   11.2866997085682836    0.0000000000000000
     0.0000000000000000    0.0000000000000000   15.0000000000000000
   C    N    Cu
    24    32     3
Direct
  0.0705412026302519  0.3881645749174161  0.2222749490282712
  0.9815117994348840  0.2183294232593125  0.1678534397381423
  0.2287730353028967  0.3966728828310322  0.1890434819542340
  0.8247233705137856  0.5757231786718410  0.1840319127032557
  0.1497060110315730  0.2466379159422656  0.1227775274239594
  0.9075862842352149  0.3843451160407583  0.2181194583498637
  0.5688657108767360  0.3931613007614047  0.2317372946673771
  0.4776810025666480  0.2239172951889553  0.1801794312990909
  0.7303504896926907  0.3980265785661222  0.1990934536829063
  0.3110111826350651  0.5813296251312603  0.1797769552418695
  0.6468185442345227  0.2504074857205850  0.1337731457287367
  0.4027509983596162  0.3935542669831393  0.2210650755644225
  0.8180805648984519  0.8898895691100375  0.0564751941525525
  0.7331953077830381  0.7256832470812178  0.1244845715217858
  0.9793282362270870  0.8959762369401376  0.0799940794744065
  0.0686790916487398  0.0769837534139857  0.0942385402730230
  0.9052808220734324  0.7425858253120321  0.1471962778569699
  0.6547240561544909  0.8933372745645659  0.0769160334950121
  0.3182534968045203  0.8947322622301641  0.0537746589420117
  0.2271661854133152  0.7212692617452539  0.1008412605040305
  0.4749891683289252  0.9039653515828571  0.0948957655781492
  0.5659295938165124  0.0807513770308377  0.1102476623085388
  0.3861251596000814  0.7603755961592106  0.1636317379145846
  0.1550903298975579  0.8895039592528010  0.0527152850566485
  0.9878455131500833  0.4388304598875988  0.2471365590320144
  0.8999179470680965  0.2697538134748543  0.1954976725611493
  0.1575985681202773  0.4332580789686020  0.2424014797120378
  0.1478882864368173  0.1435366113526962  0.0801730711084765
 -0.0136635109423558  0.1079602143862255  0.1365316691983781
  0.2291594214996948  0.3153345419281096  0.1252749022337094
  0.0673580158281538  0.2859838815478404  0.1688891111554505
  0.8227491239071073  0.4555225160933836  0.2101487737451290
  0.4849373510554421  0.4479334916564794  0.2514623161708219
  0.3964871442990739  0.2766555417055872  0.2062503014575768
  0.6575691870300192  0.4352420997757211  0.2541988822217747
  0.6448860446903674  0.1464014399903821  0.0937478822547689
  0.4828672177676360  0.1132135609944599  0.1508137571829933
  0.7260638989565846  0.3187091958121755  0.1345471927845638
  0.5647060636306962  0.2913532289876251  0.1800836350015058
  0.3188864041403796  0.4608699506429236  0.2032913524203144
  0.7328774835172768  0.9424839651163007  0.0396561616077429
  0.6489118751208003  0.7831749862261258  0.1125459672454682
  0.9038269572279557  0.9346902413146400  0.0318992597204980
  0.9070168002742113  0.6380754809217468  0.1875491229915780
  0.7364744096395264  0.6169978653061101  0.1593439368932850
  0.9832170645657864  0.8121236287954331  0.1419715211595848
  0.8192501999515547  0.7840052770009811  0.1063951293740191
  0.5680418452242089  0.9607441011171263  0.0852007361359360
  0.2369971918676790  0.9447844910918546  0.0265772497857316
  0.1482025019313816  0.7717305946320361  0.0684398407756237
  0.4079343206196097  0.9355638101084963  0.0364633120758811
  0.3804748111880162  0.6583821726528106  0.2093923941052672
  0.2350105301711514  0.6089486331496076  0.1285062817412149
  0.4652777503090724  0.8302475462589306  0.1657804739706783
  0.3111311228043690  0.7933405084176585  0.1089190996998929
  0.0699026205087011  0.9575412155251488  0.0651465088771891
  0.5773655712134101  0.7764767403680739  0.2419394098992780
  0.6558225173318800  0.6077256600545559  0.2979048963658428
  0.4870069856096644  0.6161704869955309  0.2939605883614322
 
  0.00000000E+00  0.00000000E+00  0.00000000E+00
  0.00000000E+00  0.00000000E+00  0.00000000E+00
  0.00000000E+00  0.00000000E+00  0.00000000E+00
  0.00000000E+00  0.00000000E+00  0.00000000E+00
  0.00000000E+00  0.00000000E+00  0.00000000E+00
  0.00000000E+00  0.00000000E+00  0.00000000E+00
  0.00000000E+00  0.00000000E+00  0.00000000E+00
  0.00000000E+00  0.00000000E+00  0.00000000E+00
  0.00000000E+00  0.00000000E+00  0.00000000E+00
  0.00000000E+00  0.00000000E+00  0.00000000E+00
  0.00000000E+00  0.00000000E+00  0.00000000E+00
  0.00000000E+00  0.00000000E+00  0.00000000E+00
  0.00000000E+00  0.00000000E+00  0.00000000E+00
  0.00000000E+00  0.00000000E+00  0.00000000E+00
  0.00000000E+00  0.00000000E+00  0.00000000E+00
  0.00000000E+00  0.00000000E+00  0.00000000E+00
  0.00000000E+00  0.00000000E+00  0.00000000E+00
  0.00000000E+00  0.00000000E+00  0.00000000E+00
  0.00000000E+00  0.00000000E+00  0.00000000E+00
  0.00000000E+00  0.00000000E+00  0.00000000E+00
  0.00000000E+00  0.00000000E+00  0.00000000E+00
  0.00000000E+00  0.00000000E+00  0.00000000E+00
  0.00000000E+00  0.00000000E+00  0.00000000E+00
  0.00000000E+00  0.00000000E+00  0.00000000E+00
  0.00000000E+00  0.00000000E+00  0.00000000E+00
  0.00000000E+00  0.00000000E+00  0.00000000E+00
  0.00000000E+00  0.00000000E+00  0.00000000E+00
  0.00000000E+00  0.00000000E+00  0.00000000E+00
  0.00000000E+00  0.00000000E+00  0.00000000E+00
  0.00000000E+00  0.00000000E+00  0.00000000E+00
  0.00000000E+00  0.00000000E+00  0.00000000E+00
  0.00000000E+00  0.00000000E+00  0.00000000E+00
  0.00000000E+00  0.00000000E+00  0.00000000E+00
  0.00000000E+00  0.00000000E+00  0.00000000E+00
  0.00000000E+00  0.00000000E+00  0.00000000E+00
  0.00000000E+00  0.00000000E+00  0.00000000E+00
  0.00000000E+00  0.00000000E+00  0.00000000E+00
  0.00000000E+00  0.00000000E+00  0.00000000E+00
  0.00000000E+00  0.00000000E+00  0.00000000E+00
  0.00000000E+00  0.00000000E+00  0.00000000E+00
  0.00000000E+00  0.00000000E+00  0.00000000E+00
  0.00000000E+00  0.00000000E+00  0.00000000E+00
  0.00000000E+00  0.00000000E+00  0.00000000E+00
  0.00000000E+00  0.00000000E+00  0.00000000E+00
  0.00000000E+00  0.00000000E+00  0.00000000E+00
  0.00000000E+00  0.00000000E+00  0.00000000E+00
  0.00000000E+00  0.00000000E+00  0.00000000E+00
  0.00000000E+00  0.00000000E+00  0.00000000E+00
  0.00000000E+00  0.00000000E+00  0.00000000E+00
  0.00000000E+00  0.00000000E+00  0.00000000E+00
  0.00000000E+00  0.00000000E+00  0.00000000E+00
  0.00000000E+00  0.00000000E+00  0.00000000E+00
  0.00000000E+00  0.00000000E+00  0.00000000E+00
  0.00000000E+00  0.00000000E+00  0.00000000E+00
  0.00000000E+00  0.00000000E+00  0.00000000E+00
  0.00000000E+00  0.00000000E+00  0.00000000E+00
  0.00000000E+00  0.00000000E+00  0.00000000E+00
  0.00000000E+00  0.00000000E+00  0.00000000E+00
  0.00000000E+00  0.00000000E+00  0.00000000E+00
