C  N  Ag Cu                             
   1.00000000000000     
    13.2896007178449960    0.0000000000000000    0.0000000000000000
     0.0000000000000000   11.7715639071094298    0.0000000000000000
     0.0000000000000000    0.0000000000000000   15.0000000000000000
   C    N    Ag   Cu
    24    32     1     1
Direct
  0.0520715582414043  0.3953796059722027  0.0987506987108836
  0.0008398086898538  0.2423128530550184  0.1997789164581186
  0.2156632638300588  0.3879912861222570  0.0592808118197857
  0.8132620967118621  0.5717949745670543  0.1691754463333663
  0.1478562340104243  0.2230577056575318  0.1056414132278966
  0.9045440217535011  0.3957390775868241  0.1748027238334108
  0.5515313162300938  0.4034770277065479  0.1449520679303575
  0.4902692699070538  0.2387754853133250  0.0621243903992098
  0.7168857340986841  0.3936354053123184  0.1842903463686418
  0.3031792388580284  0.5727192392777596  0.0754530541269626
  0.6407524178009971  0.2268232596816334  0.1545895839157264
  0.4010101716814400  0.4001238067800463  0.0729869414581052
  0.8306509135750558  0.9016282854980772  0.1066011570996253
  0.7412329214467954  0.7253435754220984  0.1107870806270772
  0.9816038488665255  0.9003473241150087  0.1777408922562984
  0.0777337078270378  0.0743813744813504  0.1759296022344902
  0.8943170840953023  0.7383873839525623  0.1930206671707853
  0.6641639963143527  0.8956178357699395  0.0797524343964026
  0.3320845863933279  0.8928332836916532  0.1601698724643608
  0.2344128492682374  0.7224048433537864  0.1444110162512942
  0.4822289345192441  0.8946867770301407  0.0917912031513273
  0.5700910482368393  0.0741638795383773  0.0912265802420107
  0.3921520276248663  0.7355595273391506  0.0669105939808393
  0.1659361444852814  0.8909653160074440  0.1859032461501811
  0.9599509327807181  0.4403760299354780  0.1087177458957089
  0.9240640174567213  0.3073772289125508  0.2273154261284437
  0.1272765271557830  0.4443813415038089  0.0546060824269469
  0.1432214054106396  0.1103909146563177  0.1155374036682996
  0.0117687304950132  0.1340131543101900  0.2245867609861088
  0.2241070198649991  0.2750676206846392  0.0664459219554004
  0.0688779711032901  0.2888107219997786  0.1393050233087771
  0.8094775970124167  0.4527817116448501  0.1863782147565602
  0.4626762178106404  0.4539175452273537  0.1293048272952251
  0.4155274989700753  0.3023355700356187  0.0300753997304769
  0.6315351343432690  0.4551387569856410  0.1799787986046189
  0.6359906877269779  0.1136380795461123  0.1495678232772010
  0.5018450788760251  0.1290163890037646  0.0415350355620421
  0.7218607790460290  0.2801553500746143  0.1849605538865246
  0.5595492973838233  0.2887741259085723  0.1210621971561456
  0.3049572675162379  0.4528648874032155  0.0593000611611553
  0.7509240061799463  0.9512820348802045  0.0681307024447394
  0.6556737717131822  0.7833506171039767  0.0970633437787963
  0.9186510166010891  0.9535176752866302  0.1212390254205401
  0.8822122459433444  0.6297628350308833  0.2158296320226628
  0.7452929874391182  0.6124381542469501  0.1123271015159797
  0.9688024674535709  0.8037038699941556  0.2229303975520841
  0.8244199803127384  0.7879786623319881  0.1344803605584265
  0.5737197477424071  0.9545381110540155  0.0781632425528327
  0.2533311872565879  0.9459760809948479  0.1958635399295231
  0.1546396279930109  0.7803880991056007  0.1701056603954333
  0.4205259418296051  0.9443625400653114  0.1503774492893721
  0.3766272173579848  0.6311228467344682  0.0347241015155031
  0.2324828188591327  0.6104110371125252  0.1300514900750729
  0.4697275671166752  0.8007188474606161  0.0429253832265618
  0.3223433230473351  0.7816108755024593  0.1271058560708767
  0.0764563917393253  0.9546885318856563  0.1896585541098034
  0.5021788858526075  0.7229334038270849  0.3481377254001149
  0.5830541965616240  0.7377188209967133  0.2054684177349349
 
  0.00000000E+00  0.00000000E+00  0.00000000E+00
  0.00000000E+00  0.00000000E+00  0.00000000E+00
  0.00000000E+00  0.00000000E+00  0.00000000E+00
  0.00000000E+00  0.00000000E+00  0.00000000E+00
  0.00000000E+00  0.00000000E+00  0.00000000E+00
  0.00000000E+00  0.00000000E+00  0.00000000E+00
  0.00000000E+00  0.00000000E+00  0.00000000E+00
  0.00000000E+00  0.00000000E+00  0.00000000E+00
  0.00000000E+00  0.00000000E+00  0.00000000E+00
  0.00000000E+00  0.00000000E+00  0.00000000E+00
  0.00000000E+00  0.00000000E+00  0.00000000E+00
  0.00000000E+00  0.00000000E+00  0.00000000E+00
  0.00000000E+00  0.00000000E+00  0.00000000E+00
  0.00000000E+00  0.00000000E+00  0.00000000E+00
  0.00000000E+00  0.00000000E+00  0.00000000E+00
  0.00000000E+00  0.00000000E+00  0.00000000E+00
  0.00000000E+00  0.00000000E+00  0.00000000E+00
  0.00000000E+00  0.00000000E+00  0.00000000E+00
  0.00000000E+00  0.00000000E+00  0.00000000E+00
  0.00000000E+00  0.00000000E+00  0.00000000E+00
  0.00000000E+00  0.00000000E+00  0.00000000E+00
  0.00000000E+00  0.00000000E+00  0.00000000E+00
  0.00000000E+00  0.00000000E+00  0.00000000E+00
  0.00000000E+00  0.00000000E+00  0.00000000E+00
  0.00000000E+00  0.00000000E+00  0.00000000E+00
  0.00000000E+00  0.00000000E+00  0.00000000E+00
  0.00000000E+00  0.00000000E+00  0.00000000E+00
  0.00000000E+00  0.00000000E+00  0.00000000E+00
  0.00000000E+00  0.00000000E+00  0.00000000E+00
  0.00000000E+00  0.00000000E+00  0.00000000E+00
  0.00000000E+00  0.00000000E+00  0.00000000E+00
  0.00000000E+00  0.00000000E+00  0.00000000E+00
  0.00000000E+00  0.00000000E+00  0.00000000E+00
  0.00000000E+00  0.00000000E+00  0.00000000E+00
  0.00000000E+00  0.00000000E+00  0.00000000E+00
  0.00000000E+00  0.00000000E+00  0.00000000E+00
  0.00000000E+00  0.00000000E+00  0.00000000E+00
  0.00000000E+00  0.00000000E+00  0.00000000E+00
  0.00000000E+00  0.00000000E+00  0.00000000E+00
  0.00000000E+00  0.00000000E+00  0.00000000E+00
  0.00000000E+00  0.00000000E+00  0.00000000E+00
  0.00000000E+00  0.00000000E+00  0.00000000E+00
  0.00000000E+00  0.00000000E+00  0.00000000E+00
  0.00000000E+00  0.00000000E+00  0.00000000E+00
  0.00000000E+00  0.00000000E+00  0.00000000E+00
  0.00000000E+00  0.00000000E+00  0.00000000E+00
  0.00000000E+00  0.00000000E+00  0.00000000E+00
  0.00000000E+00  0.00000000E+00  0.00000000E+00
  0.00000000E+00  0.00000000E+00  0.00000000E+00
  0.00000000E+00  0.00000000E+00  0.00000000E+00
  0.00000000E+00  0.00000000E+00  0.00000000E+00
  0.00000000E+00  0.00000000E+00  0.00000000E+00
  0.00000000E+00  0.00000000E+00  0.00000000E+00
  0.00000000E+00  0.00000000E+00  0.00000000E+00
  0.00000000E+00  0.00000000E+00  0.00000000E+00
  0.00000000E+00  0.00000000E+00  0.00000000E+00
  0.00000000E+00  0.00000000E+00  0.00000000E+00
  0.00000000E+00  0.00000000E+00  0.00000000E+00
