C  N  Ag                                
   1.00000000000000     
    12.9496195584723655    0.0000000000000000    0.0000000000000000
     0.0000000000000000   11.6587945204013739    0.0000000000000000
     0.0000000000000000    0.0000000000000000   15.0000000000000000
   C    N    Ag
    24    32     1
Direct
  0.0863498874360641  0.3936683738564750  0.1370731065078758
  0.9692116298145524  0.2393159499800376  0.1028814162813391
  0.2357846090658781  0.3963353047727272  0.0584576277391848
  0.8386795003454207  0.5802233141724513  0.2199297063652757
  0.1372355605035731  0.2412616746911078  0.0329640252947692
  0.9196410608965210  0.3959774898417246  0.1803884340307043
  0.5866698305341874  0.3967830259114586  0.1193019860430461
  0.4838545410866426  0.2263960893789565  0.1275552738306510
  0.7356689763171552  0.4036965168968438  0.2022629080997548
  0.3279591197979895  0.5754329252630765  0.0607536178933973
  0.6419139732654973  0.2398520315221294  0.2169344547292502
  0.4222670045824690  0.3915359990801976  0.0679535326092406
  0.7965727870432179  0.8969098802329828  0.1326987774705744
  0.7470749298462770  0.7460002481812026  0.2373194939009995
  0.9618952758781434  0.8961119888442785  0.0860967639404447
  0.9140546086686823  0.7409935467872505  0.1660224756938911
  0.6448125689461266  0.8986711557620959  0.2083577584821533
  0.2921505446189407  0.9017751919093723  0.1442169777804987
  0.2385043485646246  0.7426884853285086  0.0442007334717495
  0.4570179892199638  0.8930642376904401  0.1963630972032390
  0.3919383969991170  0.7299023299886053  0.1339882586250129
  0.1447120778294344  0.9041696681697728  0.0632620892479174
  0.0425160203193741  0.0794537074041946  0.0468563989385605
  0.5499180922060710  0.0754441074049758  0.2022544684479490
  0.0153593174712590  0.4369020463109112  0.1921201310235931
  0.8922807484628168  0.3004498016194820  0.1378130394452000
  0.1789251240751794  0.4416831910649856  0.1243538001134751
  0.1246209510168829  0.1319764027122867  0.0095659453118166
  0.9601887596853866  0.1296853769287659  0.0831310646902374
  0.2190952338808098  0.3044095482232201  0.0083667163581262
  0.0643608241151291  0.2929798260113027  0.0899017733633271
  0.8341746905006515  0.4597746265996771  0.2143587913814148
  0.5143600688245438  0.4455027757641987  0.0685389686387503
  0.4058926335663097  0.2824739491551508  0.0904996585978267
  0.6710626040908724  0.4564106131507681  0.1435451068934321
  0.6255013080378919  0.1332187194492512  0.2448823434991076
  0.4794758747205371  0.1158914070078409  0.1459655725882700
  0.7212347544556521  0.3049285383264186  0.2445164466168638
  0.5738028079145857  0.2869080111827547  0.1519828442869386
  0.3329417771444431  0.4555260052470572  0.0465603544409446
  0.7026046142833740  0.9424193945259366  0.1426983266489369
  0.6621635590733610  0.8065500971587175  0.2593758760524658
  0.8658046841326732  0.9373801821908367  0.0757654716109156
  0.9206110345949351  0.6303997415957160  0.1829573468852866
  0.7567769106081269  0.6344548247458208  0.2576314083460344
  0.9895878644150518  0.7994349605961584  0.1271671409859923
  0.8216365520264902  0.7994127230328690  0.1845669937649098
  0.5463822529799086  0.9551130133459548  0.2176262178279198
  0.2033744324012779  0.9545459487482704  0.1254400676224126
  0.1600179981655825  0.8080852573527413  0.0164912693588393
  0.3656744605894391  0.9472560737032454  0.1951987173973641
  0.3973263536863947  0.6186681124160461  0.1176929881222819
  0.2534357845449446  0.6343190926718359  0.0181034576065849
  0.4709096540774245  0.7818395262331823  0.1742580154066252
  0.3073838467622487  0.7920908787122369  0.1068199776642674
  0.0454607786441940  0.9591160664455135  0.0506611819108126
  0.5833248502591725  0.6260326061055359  0.1695596029115884
 
  0.00000000E+00  0.00000000E+00  0.00000000E+00
  0.00000000E+00  0.00000000E+00  0.00000000E+00
  0.00000000E+00  0.00000000E+00  0.00000000E+00
  0.00000000E+00  0.00000000E+00  0.00000000E+00
  0.00000000E+00  0.00000000E+00  0.00000000E+00
  0.00000000E+00  0.00000000E+00  0.00000000E+00
  0.00000000E+00  0.00000000E+00  0.00000000E+00
  0.00000000E+00  0.00000000E+00  0.00000000E+00
  0.00000000E+00  0.00000000E+00  0.00000000E+00
  0.00000000E+00  0.00000000E+00  0.00000000E+00
  0.00000000E+00  0.00000000E+00  0.00000000E+00
  0.00000000E+00  0.00000000E+00  0.00000000E+00
  0.00000000E+00  0.00000000E+00  0.00000000E+00
  0.00000000E+00  0.00000000E+00  0.00000000E+00
  0.00000000E+00  0.00000000E+00  0.00000000E+00
  0.00000000E+00  0.00000000E+00  0.00000000E+00
  0.00000000E+00  0.00000000E+00  0.00000000E+00
  0.00000000E+00  0.00000000E+00  0.00000000E+00
  0.00000000E+00  0.00000000E+00  0.00000000E+00
  0.00000000E+00  0.00000000E+00  0.00000000E+00
  0.00000000E+00  0.00000000E+00  0.00000000E+00
  0.00000000E+00  0.00000000E+00  0.00000000E+00
  0.00000000E+00  0.00000000E+00  0.00000000E+00
  0.00000000E+00  0.00000000E+00  0.00000000E+00
  0.00000000E+00  0.00000000E+00  0.00000000E+00
  0.00000000E+00  0.00000000E+00  0.00000000E+00
  0.00000000E+00  0.00000000E+00  0.00000000E+00
  0.00000000E+00  0.00000000E+00  0.00000000E+00
  0.00000000E+00  0.00000000E+00  0.00000000E+00
  0.00000000E+00  0.00000000E+00  0.00000000E+00
  0.00000000E+00  0.00000000E+00  0.00000000E+00
  0.00000000E+00  0.00000000E+00  0.00000000E+00
  0.00000000E+00  0.00000000E+00  0.00000000E+00
  0.00000000E+00  0.00000000E+00  0.00000000E+00
  0.00000000E+00  0.00000000E+00  0.00000000E+00
  0.00000000E+00  0.00000000E+00  0.00000000E+00
  0.00000000E+00  0.00000000E+00  0.00000000E+00
  0.00000000E+00  0.00000000E+00  0.00000000E+00
  0.00000000E+00  0.00000000E+00  0.00000000E+00
  0.00000000E+00  0.00000000E+00  0.00000000E+00
  0.00000000E+00  0.00000000E+00  0.00000000E+00
  0.00000000E+00  0.00000000E+00  0.00000000E+00
  0.00000000E+00  0.00000000E+00  0.00000000E+00
  0.00000000E+00  0.00000000E+00  0.00000000E+00
  0.00000000E+00  0.00000000E+00  0.00000000E+00
  0.00000000E+00  0.00000000E+00  0.00000000E+00
  0.00000000E+00  0.00000000E+00  0.00000000E+00
  0.00000000E+00  0.00000000E+00  0.00000000E+00
  0.00000000E+00  0.00000000E+00  0.00000000E+00
  0.00000000E+00  0.00000000E+00  0.00000000E+00
  0.00000000E+00  0.00000000E+00  0.00000000E+00
  0.00000000E+00  0.00000000E+00  0.00000000E+00
  0.00000000E+00  0.00000000E+00  0.00000000E+00
  0.00000000E+00  0.00000000E+00  0.00000000E+00
  0.00000000E+00  0.00000000E+00  0.00000000E+00
  0.00000000E+00  0.00000000E+00  0.00000000E+00
  0.00000000E+00  0.00000000E+00  0.00000000E+00
