C  N  Au Ag Pd                          
   1.00000000000000     
    13.2323105519585855    0.0000000000000000    0.0000000000000000
     0.0000000000000000   11.7290150314761341    0.0000000000000000
     0.0000000000000000    0.0000000000000000   15.0000000000000000
   C    N    Au   Ag   Pd
    24    32     1     1     1
Direct
  0.0538270945714438  0.3936785762829690  0.1135389263165940
  0.9974522020312906  0.2426022388604598  0.2160162332982207
  0.2181563786623531  0.3894525044828833  0.0773111810722258
  0.8096519771956394  0.5728492237230997  0.1876369753184123
  0.1551549480187948  0.2269004393736804  0.1362049759997490
  0.9033189559735295  0.3962316574696874  0.1831960197495819
  0.5544543079221349  0.3844076343817622  0.1369846933493076
  0.4895104370962789  0.2370741766828063  0.0402514930817359
  0.7246555127385386  0.3895720089655453  0.1590849414193238
  0.3053294985354074  0.5773503308229195  0.0709032370429804
  0.6662301069069320  0.2379471817544462  0.0805383626937512
  0.3991720986459392  0.3951417125701429  0.0705389557933356
  0.8226322170933981  0.9113080252792028  0.1630352994160203
  0.7369099397085201  0.7341010682929098  0.1350978858296538
  0.9831258605556776  0.9018975966784166  0.2154427940203531
  0.0822215210069489  0.0768985229635942  0.2051752059819777
  0.8962110361313288  0.7353160670903639  0.2184965793927265
  0.6663807368350737  0.9040929816668788  0.1009336899624275
  0.3321876178138490  0.8995662803084613  0.1514068633663852
  0.2260959795253721  0.7360266152145774  0.1207401105493302
  0.4823556723625492  0.9053949339351040  0.0776814032558353
  0.5830438808153462  0.0775524800981445  0.0459347326693991
  0.3972118628115283  0.7419634105158025  0.0632835404435969
  0.1667838938874673  0.8928537530048930  0.1892971477821712
  0.9639543727972801  0.4436266951049215  0.1229860426281751
  0.9149678950194401  0.3046929372970972  0.2344414277429600
  0.1281386751615402  0.4393802224203374  0.0658533479697899
  0.1533869005305931  0.1151535808139097  0.1502555524461762
  0.0123265979941065  0.1383674102520304  0.2488857147577901
  0.2343672637360559  0.2822552948356931  0.1039740233799492
  0.0686445255580511  0.2889822112161567  0.1568718054320811
  0.8075997546062708  0.4523943946402096  0.1906128209493918
  0.4640483965658762  0.4352365817914413  0.1338039370894635
  0.4098668947079388  0.3033973438365254  0.0207205906407461
  0.6318396962962708  0.4248349188164552  0.1858427175519080
  0.6724282029047627  0.1331228128126916  0.0505843347975245
  0.4955371173196762  0.1273594189369749  0.0212636480736078
  0.7454987767283834  0.3020159774179808  0.1061406977076098
  0.5694242590799118  0.2870561878652810  0.0880152045623080
  0.3058431576550632  0.4553303631306621  0.0625390702873010
  0.7404381399808661  0.9667685950049042  0.1355046676516441
  0.6622931508979510  0.7906590705886529  0.0956303662469951
  0.9090488237112387  0.9644470833146260  0.1798365414749166
  0.8858829805752059  0.6228033488176103  0.2315694936328045
  0.7362034844751757  0.6207529657850114  0.1394537740599503
  0.9766032799932109  0.7946205472734701  0.2460293546873257
  0.8190708796311845  0.7928660503500699  0.1715500474610748
  0.5800449233380252  0.9634333050270536  0.0670235886218058
  0.2574723666521558  0.9419759325886073  0.2014481058948010
  0.1463560597391088  0.7932788186688473  0.1520360899216101
  0.4226700082891417  0.9502524308604200  0.1416908749391094
  0.3850160555951846  0.6322400513418648  0.0310544810002985
  0.2232453723526776  0.6244536429258968  0.1067131176686911
  0.4717910490943885  0.8120333466185466  0.0306980973538896
  0.3148920554137650  0.7959242449371874  0.1067957151476053
  0.0794792562710579  0.9565162221847470  0.2169203189228306
  0.4946423517124975  0.7511849868474990  0.3048024436457442
  0.5925020699618680  0.5607183046048939  0.2860165179116674
  0.4563050641164619  0.6238783567494862  0.1595842199354013
 
  0.00000000E+00  0.00000000E+00  0.00000000E+00
  0.00000000E+00  0.00000000E+00  0.00000000E+00
  0.00000000E+00  0.00000000E+00  0.00000000E+00
  0.00000000E+00  0.00000000E+00  0.00000000E+00
  0.00000000E+00  0.00000000E+00  0.00000000E+00
  0.00000000E+00  0.00000000E+00  0.00000000E+00
  0.00000000E+00  0.00000000E+00  0.00000000E+00
  0.00000000E+00  0.00000000E+00  0.00000000E+00
  0.00000000E+00  0.00000000E+00  0.00000000E+00
  0.00000000E+00  0.00000000E+00  0.00000000E+00
  0.00000000E+00  0.00000000E+00  0.00000000E+00
  0.00000000E+00  0.00000000E+00  0.00000000E+00
  0.00000000E+00  0.00000000E+00  0.00000000E+00
  0.00000000E+00  0.00000000E+00  0.00000000E+00
  0.00000000E+00  0.00000000E+00  0.00000000E+00
  0.00000000E+00  0.00000000E+00  0.00000000E+00
  0.00000000E+00  0.00000000E+00  0.00000000E+00
  0.00000000E+00  0.00000000E+00  0.00000000E+00
  0.00000000E+00  0.00000000E+00  0.00000000E+00
  0.00000000E+00  0.00000000E+00  0.00000000E+00
  0.00000000E+00  0.00000000E+00  0.00000000E+00
  0.00000000E+00  0.00000000E+00  0.00000000E+00
  0.00000000E+00  0.00000000E+00  0.00000000E+00
  0.00000000E+00  0.00000000E+00  0.00000000E+00
  0.00000000E+00  0.00000000E+00  0.00000000E+00
  0.00000000E+00  0.00000000E+00  0.00000000E+00
  0.00000000E+00  0.00000000E+00  0.00000000E+00
  0.00000000E+00  0.00000000E+00  0.00000000E+00
  0.00000000E+00  0.00000000E+00  0.00000000E+00
  0.00000000E+00  0.00000000E+00  0.00000000E+00
  0.00000000E+00  0.00000000E+00  0.00000000E+00
  0.00000000E+00  0.00000000E+00  0.00000000E+00
  0.00000000E+00  0.00000000E+00  0.00000000E+00
  0.00000000E+00  0.00000000E+00  0.00000000E+00
  0.00000000E+00  0.00000000E+00  0.00000000E+00
  0.00000000E+00  0.00000000E+00  0.00000000E+00
  0.00000000E+00  0.00000000E+00  0.00000000E+00
  0.00000000E+00  0.00000000E+00  0.00000000E+00
  0.00000000E+00  0.00000000E+00  0.00000000E+00
  0.00000000E+00  0.00000000E+00  0.00000000E+00
  0.00000000E+00  0.00000000E+00  0.00000000E+00
  0.00000000E+00  0.00000000E+00  0.00000000E+00
  0.00000000E+00  0.00000000E+00  0.00000000E+00
  0.00000000E+00  0.00000000E+00  0.00000000E+00
  0.00000000E+00  0.00000000E+00  0.00000000E+00
  0.00000000E+00  0.00000000E+00  0.00000000E+00
  0.00000000E+00  0.00000000E+00  0.00000000E+00
  0.00000000E+00  0.00000000E+00  0.00000000E+00
  0.00000000E+00  0.00000000E+00  0.00000000E+00
  0.00000000E+00  0.00000000E+00  0.00000000E+00
  0.00000000E+00  0.00000000E+00  0.00000000E+00
  0.00000000E+00  0.00000000E+00  0.00000000E+00
  0.00000000E+00  0.00000000E+00  0.00000000E+00
  0.00000000E+00  0.00000000E+00  0.00000000E+00
  0.00000000E+00  0.00000000E+00  0.00000000E+00
  0.00000000E+00  0.00000000E+00  0.00000000E+00
  0.00000000E+00  0.00000000E+00  0.00000000E+00
  0.00000000E+00  0.00000000E+00  0.00000000E+00
  0.00000000E+00  0.00000000E+00  0.00000000E+00
