C  N  Fe Co                             
   1.00000000000000     
    13.7267074409485232    0.0000000000000000    0.0000000000000000
     0.0000000000000000   11.9174601009652772    0.0000000000000000
     0.0000000000000000    0.0000000000000000   15.0000000000000000
   C    N    Fe   Co
    24    32     1     1
Direct
  0.0647561293575983  0.4034376418687604  0.1178754909591459
  0.9849815075110043  0.2287564245710217  0.0894041717286285
  0.2188404736749965  0.3974978724382328  0.1710070496260718
  0.8293896591694708  0.5767683137861157  0.1109237341511066
  0.1372241404928533  0.2339762874309921  0.1757377522160610
  0.9069117675979838  0.3951222927269993  0.0814632706087896
  0.5649590796266226  0.4066077432126479  0.1395636178661422
  0.4809249159608681  0.2327969104206577  0.1632435269539262
  0.7268009000583722  0.4049563148639127  0.0978727020118788
  0.3052921390679307  0.5763106885002345  0.1523888695312448
  0.6477900607875295  0.2344812743751240  0.1087988533843259
  0.4005403277230239  0.4015778830267822  0.1729401638018517
  0.8205971312312407  0.9066813020584300  0.1710065424314612
  0.7506406477373719  0.7459704016040014  0.1001378100255788
  0.9843637741384974  0.8969511324318438  0.1680728191962980
  0.0634246970427980  0.0739341669544828  0.1344804657093600
  0.9101246171365170  0.7291198365069380  0.1634306656125037
  0.6576971645346116  0.8967455859887145  0.1367733022053924
  0.3144182462842843  0.9100437797944488  0.1036141174076179
  0.2254002462340579  0.7330159111812963  0.1056517538784433
  0.4780163634789063  0.8961146864544720  0.1324235995524453
  0.5661931642037656  0.0734400655767863  0.1357029390964374
  0.3862055103250756  0.7452569484652027  0.1654085021189990
  0.1501798038516063  0.8998201650531656  0.1034211638770591
  0.9871430646360509  0.4570130905288786  0.0879993653177054
  0.9056490877281010  0.2842992230139411  0.0656738163120962
  0.1458047536017957  0.4559508909454236  0.1384544647764568
  0.1292572269459237  0.1225012680112026  0.1869531720797538
  0.9950966212745187  0.1170226828605701  0.0817204626734195
  0.2147784790702055  0.2921984063558817  0.2028541290393901
  0.0619486231778020  0.2871389193014751  0.1291868023103834
  0.8191031093611081  0.4583445120563908  0.0938582594144042
  0.4870472572442766  0.4637436428323925  0.1723803047038405
  0.3991944941694279  0.2907081650983290  0.1732809722655116
  0.6423089431077519  0.4673188435429982  0.1085510788106282
  0.6441044504487293  0.1239507101674225  0.1004224210437013
  0.4873891230747320  0.1216893588285307  0.1707259720137025
  0.7273225459143506  0.2946723436814532  0.0940457991977851
  0.5649110451383695  0.2924276530575385  0.1381059585696436
  0.3098324246925738  0.4583397916166269  0.1699838447655708
  0.7303964685138602  0.9489939144226133  0.1783091803248532
  0.6631555885042542  0.7952656534967533  0.0924645530218858
  0.9032246979139827  0.9595399791243360  0.1857689414072629
  0.9002088983360206  0.6168899310338906  0.1618097532212210
  0.7583498864714293  0.6389704321686722  0.0714163746889158
  0.9907701603736359  0.7847058599297198  0.1799298277864360
  0.8276599108826485  0.7950828172749228  0.1387506042225755
  0.5677178601365491  0.9533706054368031  0.1347142264005441
  0.2315085564780462  0.9636471524750895  0.0910450102173013
  0.1446755914070882  0.7887383976259248  0.0879063403467558
  0.4043593333145812  0.9508814830049283  0.0941711545627826
  0.3806561187125786  0.6362670915024283  0.1877602518965001
  0.2350908965411199  0.6219216316647899  0.1047334457746612
  0.4740902213257845  0.7930080064625196  0.1725416570298606
  0.3071214913910646  0.7976582301034250  0.1339490654857939
  0.0660137931760717  0.9531001526583019  0.1352057773978839
  0.5130727275361628  0.6119692394001105  0.1926528955865034
  0.6235868205906328  0.6169778957031528  0.0906612333835521
 
  0.00000000E+00  0.00000000E+00  0.00000000E+00
  0.00000000E+00  0.00000000E+00  0.00000000E+00
  0.00000000E+00  0.00000000E+00  0.00000000E+00
  0.00000000E+00  0.00000000E+00  0.00000000E+00
  0.00000000E+00  0.00000000E+00  0.00000000E+00
  0.00000000E+00  0.00000000E+00  0.00000000E+00
  0.00000000E+00  0.00000000E+00  0.00000000E+00
  0.00000000E+00  0.00000000E+00  0.00000000E+00
  0.00000000E+00  0.00000000E+00  0.00000000E+00
  0.00000000E+00  0.00000000E+00  0.00000000E+00
  0.00000000E+00  0.00000000E+00  0.00000000E+00
  0.00000000E+00  0.00000000E+00  0.00000000E+00
  0.00000000E+00  0.00000000E+00  0.00000000E+00
  0.00000000E+00  0.00000000E+00  0.00000000E+00
  0.00000000E+00  0.00000000E+00  0.00000000E+00
  0.00000000E+00  0.00000000E+00  0.00000000E+00
  0.00000000E+00  0.00000000E+00  0.00000000E+00
  0.00000000E+00  0.00000000E+00  0.00000000E+00
  0.00000000E+00  0.00000000E+00  0.00000000E+00
  0.00000000E+00  0.00000000E+00  0.00000000E+00
  0.00000000E+00  0.00000000E+00  0.00000000E+00
  0.00000000E+00  0.00000000E+00  0.00000000E+00
  0.00000000E+00  0.00000000E+00  0.00000000E+00
  0.00000000E+00  0.00000000E+00  0.00000000E+00
  0.00000000E+00  0.00000000E+00  0.00000000E+00
  0.00000000E+00  0.00000000E+00  0.00000000E+00
  0.00000000E+00  0.00000000E+00  0.00000000E+00
  0.00000000E+00  0.00000000E+00  0.00000000E+00
  0.00000000E+00  0.00000000E+00  0.00000000E+00
  0.00000000E+00  0.00000000E+00  0.00000000E+00
  0.00000000E+00  0.00000000E+00  0.00000000E+00
  0.00000000E+00  0.00000000E+00  0.00000000E+00
  0.00000000E+00  0.00000000E+00  0.00000000E+00
  0.00000000E+00  0.00000000E+00  0.00000000E+00
  0.00000000E+00  0.00000000E+00  0.00000000E+00
  0.00000000E+00  0.00000000E+00  0.00000000E+00
  0.00000000E+00  0.00000000E+00  0.00000000E+00
  0.00000000E+00  0.00000000E+00  0.00000000E+00
  0.00000000E+00  0.00000000E+00  0.00000000E+00
  0.00000000E+00  0.00000000E+00  0.00000000E+00
  0.00000000E+00  0.00000000E+00  0.00000000E+00
  0.00000000E+00  0.00000000E+00  0.00000000E+00
  0.00000000E+00  0.00000000E+00  0.00000000E+00
  0.00000000E+00  0.00000000E+00  0.00000000E+00
  0.00000000E+00  0.00000000E+00  0.00000000E+00
  0.00000000E+00  0.00000000E+00  0.00000000E+00
  0.00000000E+00  0.00000000E+00  0.00000000E+00
  0.00000000E+00  0.00000000E+00  0.00000000E+00
  0.00000000E+00  0.00000000E+00  0.00000000E+00
  0.00000000E+00  0.00000000E+00  0.00000000E+00
  0.00000000E+00  0.00000000E+00  0.00000000E+00
  0.00000000E+00  0.00000000E+00  0.00000000E+00
  0.00000000E+00  0.00000000E+00  0.00000000E+00
  0.00000000E+00  0.00000000E+00  0.00000000E+00
  0.00000000E+00  0.00000000E+00  0.00000000E+00
  0.00000000E+00  0.00000000E+00  0.00000000E+00
  0.00000000E+00  0.00000000E+00  0.00000000E+00
  0.00000000E+00  0.00000000E+00  0.00000000E+00
