C  N  Co
 1.0000000000000000
    14.2060643321502518    0.0000000000000000    0.0000000000000000
     0.0000000000000000   12.3019443186819153    0.0000000000000000
     0.0000000000000000    0.0000000000000000   15.0000000000000000
 C   N   Co 
  24  32   1
Cartesian
  0.9309125325673807  4.9734575698271346  1.9999324584146549
 13.9323854001888456  2.8846402828147397  1.9996875769008482
  3.2101228760976488  4.8962651501531740  1.9999039069994071
 11.5875618360124317  7.0856923606613575  2.0029905972933824
  2.1355605905634398  2.8846715077312837  1.9996133324522849
 12.8579893449428049  4.8963233577687779  1.9999332500155844
  8.0354614083051850  4.9282154289431510  1.9993935360035699
  6.8193761123842398  2.8712633462761361  1.9978677268923932
 10.3278030002868384  4.8982166360658583  2.0023713837562909
  4.4792210747666132  7.0864664749547090  2.0029056846294213
  9.2501147547393607  2.8703985983834395  1.9978100938133883
  5.7417994294719863  4.8999786618894463  2.0029336597447847
 11.5911800788976915 11.1362271742325820  1.9983267808986676
 10.4148469668226475  9.0558780461394530  2.0005142444546218
 13.8727054605304421 11.0532048180011149  1.9996495617077819
 12.8039391797942681  9.0331230546738688  1.9976095790732984
  9.2958911527341641 11.0556828025972589  2.0027861850299384
  4.4743968828931751 11.1387564992494017  1.9980081667630860
  3.2614549657963825  9.0341129612397459  1.9974018037995436
  6.7694905002335268 11.0581656116185769  2.0025073454449078
  5.6490994062365170  9.0593131571779164  1.9993517114059036
  2.1927207362620571 11.0539204742477981  1.9998844668624645
  0.9301604268898565  0.9460007543477889  1.9997050454391974
  8.0338869870417664  0.9394101477351857  1.9997110209444089
 13.9767921979150369  5.6186953463845537  1.9997485200558793
 12.7927489342105094  3.5682050650873278  1.9992017187450226
  2.0914013634749078  5.6186774872467051  1.9995650957413831
  2.1138592821873692  1.5602486362114305  1.9993044215185891
 13.9527777316774237  1.5601282009355937  1.9994290585305854
  3.2758293882030314  3.5681133104098000  1.9992539262124907
  0.9309413157346189  3.5827078880711669  2.0002437506623933
 11.5809897084558635  5.6333494178508783  2.0005571848429184
  6.8953261428600010  5.6092218837417231  2.0059140916354274
  5.6933043754547725  3.5731628799307376  2.0039563550144162
  9.1755605073797497  5.6076487798066115  2.0053292210745135
  9.2219908528201984  1.5515034651295165  2.0012933684186400
  6.8462864353520834  1.5522646739388073  2.0011249244854366
 10.3767754047323706  3.5711414406886965  2.0036788726417472
  8.0348098349589474  3.5630547233994863  1.9888858015915154
  4.4877195057234864  5.6343660768881776  2.0008178367878657
 10.4208751498950463 11.7623808119938325  2.0042592999703275
  9.2562374527971141  9.7045596319646723  2.0058321672484274
 12.7459365784632332 11.7740855894295535  2.0016160201051409
 12.7619952421931373  7.7075853138300232  2.0026919199894664
 10.3980300141998825  7.7292785890508959  2.0077270593362413
 13.9321394532288245  9.7176492245210397  2.0007845515638345
 11.5984562809137888  9.7395144073790618  1.9897995780674924
  8.0330155109076777 11.7766285020266306  2.0002689694612079
  3.3193197264579051 11.7753389267111412  2.0020323410168581
  2.1332088021651670  9.7182997439904426  2.0015798522146406
  5.6445512857410680 11.7650090888385375  2.0045889964739745
  5.6682489835081933  7.7324275631468371  2.0071730662572436
  3.3048794992314545  7.7085056252546220  2.0033526145544922
  6.8074796624196967  9.7072933361841169  2.0049989744597037
  4.4666222532210460  9.7418091710524166  1.9879814228912025
  0.9296988685395403 11.7837547799482003  1.9996684664116517
  8.0140704793133555  7.6809112421738570  2.0596914332801446
