C  N  Ag                                
   1.00000000000000     
    13.7501370611544438    0.0000000000000000    0.0000000000000000
     0.0000000000000000   11.7622692090167256    0.0000000000000000
     0.0000000000000000    0.0000000000000000   15.0000000000000000
   C    N    Ag
    24    32     1
Direct
  0.0689252069369344  0.3915507037003992  0.1267474545276453
  0.9832006659589487  0.2256874120457818  0.0731296355376336
  0.2296197192747165  0.3992195077171996  0.0985398477760985
  0.8173929701978477  0.5694294553382648  0.1235929817177908
  0.1589648700958207  0.2313206197256683  0.0704734059771908
  0.9069048818583447  0.3886239770885493  0.1106164079410792
  0.5690833966734073  0.3898057437099627  0.0983393193673406
  0.4739636695985683  0.2358574510827971  0.1562661320576495
  0.7304159708152022  0.3896120227987141  0.1266275455175163
  0.3129159314415732  0.5862823632821385  0.1144364220371311
  0.6484155453005409  0.2381729021247216  0.1811617588352589
  0.4043156917991019  0.4001158421399816  0.1080648509413322
  0.8190259201920767  0.9056520667116736  0.1661221803100686
  0.7339117604633297  0.7273308229887198  0.1685325185499096
  0.9772030082037593  0.9016033719055144  0.1273701085896568
  0.8992615606758857  0.7345302697215622  0.1097505966584092
  0.6540551237104634  0.8972491853957556  0.1848154807125425
  0.3097169802010353  0.9132130936675259  0.1855298966814264
  0.2235399658335422  0.7398963972150214  0.1565127195684475
  0.4731004784996427  0.9026885857760449  0.1756436209930595
  0.3907309400834776  0.7574616315571099  0.1120148817897127
  0.1494046479718884  0.9073752084608822  0.1651692655586331
  0.0742319689423363  0.0683750928639927  0.0858694586858426
  0.5596109752265119  0.0797064164719115  0.1971892187228733
  0.9846748993156945  0.4405701031436547  0.1454186781191114
  0.9010581536306930  0.2869379500023492  0.0712830030636400
  0.1538982618582040  0.4419665302077549  0.1410312888847240
  0.1612407261894860  0.1178869413274734  0.0732483580021075
  0.9877166518239323  0.1139930189677929  0.0626975076370864
  0.2350938752105098  0.2993793740592247  0.0548871951989920
  0.0700617772176489  0.2827704075308870  0.0917859107138204
  0.8186295141809942  0.4497253905944248  0.1180589139098128
  0.4873137048225983  0.4447811170468331  0.0763013003667847
  0.3943274362646754  0.2993334153532234  0.1484985671938596
  0.6549806526345229  0.4370380230070255  0.0827901891836624
  0.6413849817689722  0.1358669985440826  0.2175704358141901
  0.4741402006582183  0.1273545750031283  0.1778082314122656
  0.7308504833583020  0.2982636851215743  0.1791158026327729
  0.5649656256257616  0.2857710902236286  0.1400393225036906
  0.3173543627198515  0.4649182986444892  0.1011786513165527
  0.7350827270910638  0.9587034674430090  0.1759497451923167
  0.6509253151838286  0.7818413549501922  0.1879677048866726
  0.9051894547324831  0.9582598101896512  0.1658588440655924
  0.8939226495426981  0.6248274300561845  0.0899059430613510
  0.7365224061397394  0.6146164605372932  0.1602038890858499
  0.9768572385698560  0.7985741273265800  0.0901444139610766
  0.8198229283169505  0.7871884630458561  0.1535613251385624
  0.5638796715717722  0.9580293130622772  0.1923593475138793
  0.2261247238474312  0.9684090652586361  0.1925359907429588
  0.1423569851131859  0.7933151791693519  0.1748217953539861
  0.3958512914201035  0.9459045061059381  0.2172866545154319
  0.3904838708359244  0.6483338720346304  0.0863618219034534
  0.2347236895852522  0.6274625753470896  0.1542443368539683
  0.4743253949618744  0.8154763320768907  0.1168976706257130
  0.3064446697663408  0.8083013852202897  0.1386170361229829
  0.0696624685975014  0.9610291943976568  0.1254757214139758
  0.5643778004824487  0.6339129829165886  0.0797886945549467
 
  0.00000000E+00  0.00000000E+00  0.00000000E+00
  0.00000000E+00  0.00000000E+00  0.00000000E+00
  0.00000000E+00  0.00000000E+00  0.00000000E+00
  0.00000000E+00  0.00000000E+00  0.00000000E+00
  0.00000000E+00  0.00000000E+00  0.00000000E+00
  0.00000000E+00  0.00000000E+00  0.00000000E+00
  0.00000000E+00  0.00000000E+00  0.00000000E+00
  0.00000000E+00  0.00000000E+00  0.00000000E+00
  0.00000000E+00  0.00000000E+00  0.00000000E+00
  0.00000000E+00  0.00000000E+00  0.00000000E+00
  0.00000000E+00  0.00000000E+00  0.00000000E+00
  0.00000000E+00  0.00000000E+00  0.00000000E+00
  0.00000000E+00  0.00000000E+00  0.00000000E+00
  0.00000000E+00  0.00000000E+00  0.00000000E+00
  0.00000000E+00  0.00000000E+00  0.00000000E+00
  0.00000000E+00  0.00000000E+00  0.00000000E+00
  0.00000000E+00  0.00000000E+00  0.00000000E+00
  0.00000000E+00  0.00000000E+00  0.00000000E+00
  0.00000000E+00  0.00000000E+00  0.00000000E+00
  0.00000000E+00  0.00000000E+00  0.00000000E+00
  0.00000000E+00  0.00000000E+00  0.00000000E+00
  0.00000000E+00  0.00000000E+00  0.00000000E+00
  0.00000000E+00  0.00000000E+00  0.00000000E+00
  0.00000000E+00  0.00000000E+00  0.00000000E+00
  0.00000000E+00  0.00000000E+00  0.00000000E+00
  0.00000000E+00  0.00000000E+00  0.00000000E+00
  0.00000000E+00  0.00000000E+00  0.00000000E+00
  0.00000000E+00  0.00000000E+00  0.00000000E+00
  0.00000000E+00  0.00000000E+00  0.00000000E+00
  0.00000000E+00  0.00000000E+00  0.00000000E+00
  0.00000000E+00  0.00000000E+00  0.00000000E+00
  0.00000000E+00  0.00000000E+00  0.00000000E+00
  0.00000000E+00  0.00000000E+00  0.00000000E+00
  0.00000000E+00  0.00000000E+00  0.00000000E+00
  0.00000000E+00  0.00000000E+00  0.00000000E+00
  0.00000000E+00  0.00000000E+00  0.00000000E+00
  0.00000000E+00  0.00000000E+00  0.00000000E+00
  0.00000000E+00  0.00000000E+00  0.00000000E+00
  0.00000000E+00  0.00000000E+00  0.00000000E+00
  0.00000000E+00  0.00000000E+00  0.00000000E+00
  0.00000000E+00  0.00000000E+00  0.00000000E+00
  0.00000000E+00  0.00000000E+00  0.00000000E+00
  0.00000000E+00  0.00000000E+00  0.00000000E+00
  0.00000000E+00  0.00000000E+00  0.00000000E+00
  0.00000000E+00  0.00000000E+00  0.00000000E+00
  0.00000000E+00  0.00000000E+00  0.00000000E+00
  0.00000000E+00  0.00000000E+00  0.00000000E+00
  0.00000000E+00  0.00000000E+00  0.00000000E+00
  0.00000000E+00  0.00000000E+00  0.00000000E+00
  0.00000000E+00  0.00000000E+00  0.00000000E+00
  0.00000000E+00  0.00000000E+00  0.00000000E+00
  0.00000000E+00  0.00000000E+00  0.00000000E+00
  0.00000000E+00  0.00000000E+00  0.00000000E+00
  0.00000000E+00  0.00000000E+00  0.00000000E+00
  0.00000000E+00  0.00000000E+00  0.00000000E+00
  0.00000000E+00  0.00000000E+00  0.00000000E+00
  0.00000000E+00  0.00000000E+00  0.00000000E+00
