C  N  Ag                                
   1.00000000000000     
    13.5215277632977333    0.0000000000000000    0.0000000000000000
     0.0000000000000000   11.7497861999946629    0.0000000000000000
     0.0000000000000000    0.0000000000000000   15.0000000000000000
   C    N    Ag
    24    32     1
Direct
  0.0684286829463248  0.4060322372147300  0.1215407907433817
  0.9756212925732460  0.2392539454143282  0.0734543758043068
  0.2296867766813171  0.4046867356531205  0.0879164055508037
  0.8078392044517975  0.5761287415751353  0.1367481336902048
  0.1536858313151553  0.2376302795876979  0.0662664881402440
  0.9028854690128496  0.4024474321195878  0.1149565881223680
  0.5690404743864041  0.3680811289763650  0.0847583580499723
  0.4697726700647388  0.2316780487276107  0.1642970293312787
  0.7264132001017161  0.3880805823576657  0.1333928957256202
  0.3294810370769452  0.5786546972800017  0.0845919019449274
  0.6456185198741606  0.2361507638111084  0.1905290923351232
  0.4052827565238787  0.3868832608198225  0.0972326750750252
  0.8196953025895446  0.9138804461628443  0.1792413856316733
  0.7341379304358120  0.7357512832568660  0.1979169728752644
  0.9746153731708973  0.9071474949153239  0.1224845893513525
  0.8912606083974667  0.7412410617021475  0.1174087399798244
  0.6566398316005512  0.9041787995143002  0.2184270822642000
  0.3060581047375868  0.8928202660805763  0.1819166766121818
  0.2444870396719158  0.7459260881454758  0.0776089058364892
  0.4726974561346605  0.8934172820437817  0.2032469000629854
  0.4083426999599798  0.7366153393980054  0.1373759358347471
  0.1576523212538101  0.9037526502731540  0.1124194953781089
  0.0644746904523478  0.0774088784650128  0.0767815613501912
  0.5538996343965599  0.0810979733643231  0.2190329449761134
  0.9838728869198604  0.4540547618965167  0.1462708851023799
  0.8932841666761181  0.3029905344474633  0.0730711775624868
  0.1554273192976518  0.4586822614249828  0.1284431392054908
  0.1532034756251636  0.1250233846608538  0.0628481342939376
  0.9758808313922441  0.1276137817291517  0.0643649628490297
  0.2337055876163988  0.3006412572465495  0.0526259737453967
  0.0660942990570351  0.2949466203734187  0.0881467585945136
  0.8122951679645619  0.4580837973133442  0.1305769288128436
  0.4868076198769474  0.4154702385264737  0.0517841562710863
  0.3931648667246725  0.3018710536707674  0.1554409845147285
  0.6554808507054988  0.4223645207700929  0.0762975174551197
  0.6368119602732543  0.1408665452617535  0.2358475138428161
  0.4666046379897626  0.1283936582244856  0.1990778857211614
  0.7256165061485278  0.3035268388874405  0.1920102896615076
  0.5641107790485458  0.2709080152678541  0.1359081110706526
  0.3223250252572747  0.4604445988660501  0.0856126021935598
  0.7348215113899672  0.9671408927189548  0.1962092718572274
  0.6584242002632767  0.7913900645603669  0.2348473623477344
  0.9055582413042187  0.9667082553411833  0.1667852628426535
  0.8807536221993859  0.6320502088415774  0.0965954269036231
  0.7312181247786170  0.6221842990915857  0.1844518295450668
  0.9690507515233914  0.8009596088233447  0.0919548490022817
  0.8166887799758508  0.7949574617142975  0.1678357992945316
  0.5604850829272788  0.9594128519623000  0.2221748600631255
  0.2167191600423398  0.9419349965833553  0.1783640785770807
  0.1690528229597204  0.8156087064650211  0.0574497065156461
  0.3841686989840595  0.9356166119739201  0.2253917487493832
  0.4136394732125467  0.6260720781749506  0.1181591892094220
  0.2526086152493128  0.6386504458634817  0.0508669711527799
  0.4883138955002425  0.7947051140325671  0.1602398600551912
  0.3183967381353437  0.7911832012732299  0.1341224466267139
  0.0645777661705274  0.9649098782928722  0.1027527472713103
  0.5752760699942092  0.5931906202663635  0.1401356444231700
 
  0.00000000E+00  0.00000000E+00  0.00000000E+00
  0.00000000E+00  0.00000000E+00  0.00000000E+00
  0.00000000E+00  0.00000000E+00  0.00000000E+00
  0.00000000E+00  0.00000000E+00  0.00000000E+00
  0.00000000E+00  0.00000000E+00  0.00000000E+00
  0.00000000E+00  0.00000000E+00  0.00000000E+00
  0.00000000E+00  0.00000000E+00  0.00000000E+00
  0.00000000E+00  0.00000000E+00  0.00000000E+00
  0.00000000E+00  0.00000000E+00  0.00000000E+00
  0.00000000E+00  0.00000000E+00  0.00000000E+00
  0.00000000E+00  0.00000000E+00  0.00000000E+00
  0.00000000E+00  0.00000000E+00  0.00000000E+00
  0.00000000E+00  0.00000000E+00  0.00000000E+00
  0.00000000E+00  0.00000000E+00  0.00000000E+00
  0.00000000E+00  0.00000000E+00  0.00000000E+00
  0.00000000E+00  0.00000000E+00  0.00000000E+00
  0.00000000E+00  0.00000000E+00  0.00000000E+00
  0.00000000E+00  0.00000000E+00  0.00000000E+00
  0.00000000E+00  0.00000000E+00  0.00000000E+00
  0.00000000E+00  0.00000000E+00  0.00000000E+00
  0.00000000E+00  0.00000000E+00  0.00000000E+00
  0.00000000E+00  0.00000000E+00  0.00000000E+00
  0.00000000E+00  0.00000000E+00  0.00000000E+00
  0.00000000E+00  0.00000000E+00  0.00000000E+00
  0.00000000E+00  0.00000000E+00  0.00000000E+00
  0.00000000E+00  0.00000000E+00  0.00000000E+00
  0.00000000E+00  0.00000000E+00  0.00000000E+00
  0.00000000E+00  0.00000000E+00  0.00000000E+00
  0.00000000E+00  0.00000000E+00  0.00000000E+00
  0.00000000E+00  0.00000000E+00  0.00000000E+00
  0.00000000E+00  0.00000000E+00  0.00000000E+00
  0.00000000E+00  0.00000000E+00  0.00000000E+00
  0.00000000E+00  0.00000000E+00  0.00000000E+00
  0.00000000E+00  0.00000000E+00  0.00000000E+00
  0.00000000E+00  0.00000000E+00  0.00000000E+00
  0.00000000E+00  0.00000000E+00  0.00000000E+00
  0.00000000E+00  0.00000000E+00  0.00000000E+00
  0.00000000E+00  0.00000000E+00  0.00000000E+00
  0.00000000E+00  0.00000000E+00  0.00000000E+00
  0.00000000E+00  0.00000000E+00  0.00000000E+00
  0.00000000E+00  0.00000000E+00  0.00000000E+00
  0.00000000E+00  0.00000000E+00  0.00000000E+00
  0.00000000E+00  0.00000000E+00  0.00000000E+00
  0.00000000E+00  0.00000000E+00  0.00000000E+00
  0.00000000E+00  0.00000000E+00  0.00000000E+00
  0.00000000E+00  0.00000000E+00  0.00000000E+00
  0.00000000E+00  0.00000000E+00  0.00000000E+00
  0.00000000E+00  0.00000000E+00  0.00000000E+00
  0.00000000E+00  0.00000000E+00  0.00000000E+00
  0.00000000E+00  0.00000000E+00  0.00000000E+00
  0.00000000E+00  0.00000000E+00  0.00000000E+00
  0.00000000E+00  0.00000000E+00  0.00000000E+00
  0.00000000E+00  0.00000000E+00  0.00000000E+00
  0.00000000E+00  0.00000000E+00  0.00000000E+00
  0.00000000E+00  0.00000000E+00  0.00000000E+00
  0.00000000E+00  0.00000000E+00  0.00000000E+00
  0.00000000E+00  0.00000000E+00  0.00000000E+00
