C  N  Ag                                
   1.00000000000000     
    13.7500028334894715    0.0000000000000000    0.0000000000000000
     0.0000000000000000   11.7675811601383096    0.0000000000000000
     0.0000000000000000    0.0000000000000000   15.0000000000000000
   C    N    Ag
    24    32     1
Direct
  0.0689082632872066  0.3912736864844752  0.1269954979333867
  0.9830387495994114  0.2252001796316056  0.0732988600972336
  0.2294748370787258  0.3988080311274571  0.0986216141036650
  0.8173110904225276  0.5694982450596915  0.1235545369078511
  0.1588308065447782  0.2308266526228264  0.0704241046843786
  0.9068313435633779  0.3883701314881036  0.1107166688218793
  0.5690658394913439  0.3897342465710761  0.0984011928866364
  0.4741269932408846  0.2357698288580715  0.1559990918281630
  0.7304117911970521  0.3899185455030703  0.1260737438305590
  0.3131167627050825  0.5860539593126874  0.1142528517734600
  0.6487136160137232  0.2381871670600546  0.1808071923887630
  0.4041243593522736  0.4000942042701121  0.1085236417055959
  0.8189455144779545  0.9057966270394255  0.1661359928411338
  0.7336513777382588  0.7277486132551142  0.1683806683196186
  0.9770224708906852  0.9016470065899348  0.1271323332096992
  0.8990612899975945  0.7347667134711400  0.1092898280613709
  0.6541104060287837  0.8973651042883527  0.1858392039894217
  0.3098653425861858  0.9130213820900851  0.1857782166939996
  0.2237261797555945  0.7399037635188763  0.1559412020561315
  0.4732558893404273  0.9028551788232009  0.1761370648088245
  0.3911147226383977  0.7573962318271408  0.1124101766700726
  0.1494096533669354  0.9071542094670597  0.1645658302337858
  0.0740395713195289  0.0684607710213739  0.0857326318066037
  0.5598613277001967  0.0797901038411455  0.1974678925829678
  0.9844106889698379  0.4401420214593242  0.1457543929823874
  0.9007224836296142  0.2868871009691093  0.0713989003695889
  0.1536412203424557  0.4417103142964007  0.1413359023588399
  0.1611812331157554  0.1177775833345007  0.0728104212925415
  0.9873544613624317  0.1138771458956095  0.0629349197915554
  0.2350302826514651  0.2991990784158788  0.0550881531596198
  0.0698825562929028  0.2826560150292370  0.0918368107753343
  0.8186532662967045  0.4500096296380748  0.1176923719342580
  0.4873360412924975  0.4450148908288625  0.0771988352584288
  0.3943003145536865  0.2990685568299913  0.1483518416385511
  0.6548798951144985  0.4371923391890641  0.0825206378569124
  0.6415583286958993  0.1363088079012866  0.2177873679164104
  0.4742972253000584  0.1273228743082907  0.1776658373641320
  0.7310813216230854  0.2984679958621053  0.1783727015671253
  0.5651391225820279  0.2856205041844230  0.1394303938944085
  0.3172710188246895  0.4648952199029092  0.1013495304020043
  0.7351078045556058  0.9590109682043250  0.1770944319810877
  0.6509991289792405  0.7821187339054251  0.1891103224032065
  0.9052274922013755  0.9581595829356118  0.1661035422477760
  0.8943011510957676  0.6250252661436579  0.0903449677317191
  0.7364137046434661  0.6149199017045445  0.1598717084701106
  0.9766345089132017  0.7987612895982554  0.0896370048987522
  0.8191832137079031  0.7876458782332154  0.1522920414603956
  0.5640093702542517  0.9582235881858263  0.1930132612089409
  0.2260561387444527  0.9682189363516489  0.1922647786349135
  0.1423669155443399  0.7932083887059717  0.1736453391471515
  0.3958023739975981  0.9456931758446054  0.2178364822828845
  0.3909122945171871  0.6482598352961805  0.0868736307657369
  0.2344683395907325  0.6275873005527139  0.1532219745297144
  0.4746101795417473  0.8158818758304989  0.1171483154031148
  0.3069246775428745  0.8082502671771410  0.1389644792599446
  0.0696019919740983  0.9608859063299573  0.1251509340637518
  0.5647794982050914  0.6338610251388278  0.0796277287135398
 
  0.00000000E+00  0.00000000E+00  0.00000000E+00
  0.00000000E+00  0.00000000E+00  0.00000000E+00
  0.00000000E+00  0.00000000E+00  0.00000000E+00
  0.00000000E+00  0.00000000E+00  0.00000000E+00
  0.00000000E+00  0.00000000E+00  0.00000000E+00
  0.00000000E+00  0.00000000E+00  0.00000000E+00
  0.00000000E+00  0.00000000E+00  0.00000000E+00
  0.00000000E+00  0.00000000E+00  0.00000000E+00
  0.00000000E+00  0.00000000E+00  0.00000000E+00
  0.00000000E+00  0.00000000E+00  0.00000000E+00
  0.00000000E+00  0.00000000E+00  0.00000000E+00
  0.00000000E+00  0.00000000E+00  0.00000000E+00
  0.00000000E+00  0.00000000E+00  0.00000000E+00
  0.00000000E+00  0.00000000E+00  0.00000000E+00
  0.00000000E+00  0.00000000E+00  0.00000000E+00
  0.00000000E+00  0.00000000E+00  0.00000000E+00
  0.00000000E+00  0.00000000E+00  0.00000000E+00
  0.00000000E+00  0.00000000E+00  0.00000000E+00
  0.00000000E+00  0.00000000E+00  0.00000000E+00
  0.00000000E+00  0.00000000E+00  0.00000000E+00
  0.00000000E+00  0.00000000E+00  0.00000000E+00
  0.00000000E+00  0.00000000E+00  0.00000000E+00
  0.00000000E+00  0.00000000E+00  0.00000000E+00
  0.00000000E+00  0.00000000E+00  0.00000000E+00
  0.00000000E+00  0.00000000E+00  0.00000000E+00
  0.00000000E+00  0.00000000E+00  0.00000000E+00
  0.00000000E+00  0.00000000E+00  0.00000000E+00
  0.00000000E+00  0.00000000E+00  0.00000000E+00
  0.00000000E+00  0.00000000E+00  0.00000000E+00
  0.00000000E+00  0.00000000E+00  0.00000000E+00
  0.00000000E+00  0.00000000E+00  0.00000000E+00
  0.00000000E+00  0.00000000E+00  0.00000000E+00
  0.00000000E+00  0.00000000E+00  0.00000000E+00
  0.00000000E+00  0.00000000E+00  0.00000000E+00
  0.00000000E+00  0.00000000E+00  0.00000000E+00
  0.00000000E+00  0.00000000E+00  0.00000000E+00
  0.00000000E+00  0.00000000E+00  0.00000000E+00
  0.00000000E+00  0.00000000E+00  0.00000000E+00
  0.00000000E+00  0.00000000E+00  0.00000000E+00
  0.00000000E+00  0.00000000E+00  0.00000000E+00
  0.00000000E+00  0.00000000E+00  0.00000000E+00
  0.00000000E+00  0.00000000E+00  0.00000000E+00
  0.00000000E+00  0.00000000E+00  0.00000000E+00
  0.00000000E+00  0.00000000E+00  0.00000000E+00
  0.00000000E+00  0.00000000E+00  0.00000000E+00
  0.00000000E+00  0.00000000E+00  0.00000000E+00
  0.00000000E+00  0.00000000E+00  0.00000000E+00
  0.00000000E+00  0.00000000E+00  0.00000000E+00
  0.00000000E+00  0.00000000E+00  0.00000000E+00
  0.00000000E+00  0.00000000E+00  0.00000000E+00
  0.00000000E+00  0.00000000E+00  0.00000000E+00
  0.00000000E+00  0.00000000E+00  0.00000000E+00
  0.00000000E+00  0.00000000E+00  0.00000000E+00
  0.00000000E+00  0.00000000E+00  0.00000000E+00
  0.00000000E+00  0.00000000E+00  0.00000000E+00
  0.00000000E+00  0.00000000E+00  0.00000000E+00
  0.00000000E+00  0.00000000E+00  0.00000000E+00
