C  N  Ag                                
   1.00000000000000     
    13.7628453403475373    0.0000000000000000    0.0000000000000000
     0.0000000000000000   11.7250761330903632    0.0000000000000000
     0.0000000000000000    0.0000000000000000   15.0000000000000000
   C    N    Ag
    24    32     1
Direct
  0.0690284642451891  0.3951777020521904  0.1243796265627477
  0.9835039241318633  0.2277845709601228  0.0714397097692353
  0.2304010275694054  0.4000179281013647  0.1001914357161862
  0.8165817502205727  0.5686723419255382  0.1255062809034831
  0.1589990212765368  0.2323540730841071  0.0707420647717494
  0.9065098026704641  0.3895844733280472  0.1114988444098176
  0.5704047692862245  0.3872674878257986  0.0961046200950499
  0.4746893935173244  0.2383026188771716  0.1593550385007007
  0.7302705125753686  0.3893762301118314  0.1300410511085527
  0.3115275999379750  0.5858987169774814  0.1148577918838015
  0.6481532816149252  0.2390236333187419  0.1855892537304079
  0.4059372110250544  0.4009416036664635  0.1065086784003184
  0.8190123097415282  0.9058866983268341  0.1652849314148059
  0.7360430186561427  0.7267806326642602  0.1720214272178515
  0.9772370618553330  0.9022694948142316  0.1292019788499338
  0.8992935820030332  0.7341772712300738  0.1121332768667894
  0.6542391884376704  0.8967738853884861  0.1764870612242444
  0.3108103877443348  0.9126132426388843  0.1853703009922074
  0.2236676613747004  0.7387831460007001  0.1635403542576111
  0.4734394822986413  0.9003500894333959  0.1681118443196754
  0.3874670779584814  0.7560423320106416  0.1083732025779327
  0.1492336384128249  0.9075709872038015  0.1693728253210504
  0.0738518545737934  0.0694394996999524  0.0874149171434929
  0.5596374378380624  0.0777398791652273  0.1921028182759472
  0.9839223905699037  0.4428065684870511  0.1445204025007938
  0.9005110714150945  0.2880014549517880  0.0708603591442068
  0.1529938017224862  0.4451176969349755  0.1400784796949118
  0.1606722552717866  0.1180696395239020  0.0734555648719723
  0.9881377541453932  0.1149479772503963  0.0640561228423544
  0.2366322874357175  0.2980173238117076  0.0594238119207297
  0.0699249682915358  0.2861606493264076  0.0878022601007518
  0.8183450831337408  0.4499189689021092  0.1219646267372398
  0.4883342796355705  0.4389125226828899  0.0668943570980923
  0.3965718470730027  0.3045803989250007  0.1526931080612781
  0.6571787800546229  0.4320235444732431  0.0795945024767870
  0.6410400631512145  0.1330165668173178  0.2154489537302375
  0.4741661894196304  0.1278009302200750  0.1734614388245036
  0.7300731325377181  0.3007007374785539  0.1855475157484974
  0.5650533839187331  0.2899016358502360  0.1473012320050434
  0.3175132007583983  0.4654418014341234  0.1010844379042947
  0.7345755050963665  0.9595309893537347  0.1660269688521017
  0.6514745077658065  0.7816837512755597  0.1815988691154808
  0.9038458424468054  0.9613735225751673  0.1622863461704758
  0.8889231093662523  0.6266701273407609  0.0862415566025407
  0.7372209099613142  0.6130888096648274  0.1650962505206071
  0.9762896752567445  0.7982840738750929  0.0925774963786450
  0.8233553203714741  0.7855047640363239  0.1644380779404070
  0.5642148391397899  0.9563195873738232  0.1831717268729200
  0.2278314232131911  0.9690186130140888  0.1930226227994918
  0.1423613086401186  0.7933522666545169  0.1819975187073396
  0.3987714546146603  0.9443590180355790  0.2128104407541422
  0.3858797538132587  0.6477362075841048  0.0806161593475703
  0.2365276933781157  0.6259057762791308  0.1607060598916089
  0.4714203839968920  0.8143266496705248  0.1078060119188007
  0.3059034174482292  0.8052140883843754  0.1429120363685140
  0.0696806440886359  0.9614161478863646  0.1295497669839771
  0.5628707068958204  0.6294712325264555  0.0855355828001299
 
  0.00000000E+00  0.00000000E+00  0.00000000E+00
  0.00000000E+00  0.00000000E+00  0.00000000E+00
  0.00000000E+00  0.00000000E+00  0.00000000E+00
  0.00000000E+00  0.00000000E+00  0.00000000E+00
  0.00000000E+00  0.00000000E+00  0.00000000E+00
  0.00000000E+00  0.00000000E+00  0.00000000E+00
  0.00000000E+00  0.00000000E+00  0.00000000E+00
  0.00000000E+00  0.00000000E+00  0.00000000E+00
  0.00000000E+00  0.00000000E+00  0.00000000E+00
  0.00000000E+00  0.00000000E+00  0.00000000E+00
  0.00000000E+00  0.00000000E+00  0.00000000E+00
  0.00000000E+00  0.00000000E+00  0.00000000E+00
  0.00000000E+00  0.00000000E+00  0.00000000E+00
  0.00000000E+00  0.00000000E+00  0.00000000E+00
  0.00000000E+00  0.00000000E+00  0.00000000E+00
  0.00000000E+00  0.00000000E+00  0.00000000E+00
  0.00000000E+00  0.00000000E+00  0.00000000E+00
  0.00000000E+00  0.00000000E+00  0.00000000E+00
  0.00000000E+00  0.00000000E+00  0.00000000E+00
  0.00000000E+00  0.00000000E+00  0.00000000E+00
  0.00000000E+00  0.00000000E+00  0.00000000E+00
  0.00000000E+00  0.00000000E+00  0.00000000E+00
  0.00000000E+00  0.00000000E+00  0.00000000E+00
  0.00000000E+00  0.00000000E+00  0.00000000E+00
  0.00000000E+00  0.00000000E+00  0.00000000E+00
  0.00000000E+00  0.00000000E+00  0.00000000E+00
  0.00000000E+00  0.00000000E+00  0.00000000E+00
  0.00000000E+00  0.00000000E+00  0.00000000E+00
  0.00000000E+00  0.00000000E+00  0.00000000E+00
  0.00000000E+00  0.00000000E+00  0.00000000E+00
  0.00000000E+00  0.00000000E+00  0.00000000E+00
  0.00000000E+00  0.00000000E+00  0.00000000E+00
  0.00000000E+00  0.00000000E+00  0.00000000E+00
  0.00000000E+00  0.00000000E+00  0.00000000E+00
  0.00000000E+00  0.00000000E+00  0.00000000E+00
  0.00000000E+00  0.00000000E+00  0.00000000E+00
  0.00000000E+00  0.00000000E+00  0.00000000E+00
  0.00000000E+00  0.00000000E+00  0.00000000E+00
  0.00000000E+00  0.00000000E+00  0.00000000E+00
  0.00000000E+00  0.00000000E+00  0.00000000E+00
  0.00000000E+00  0.00000000E+00  0.00000000E+00
  0.00000000E+00  0.00000000E+00  0.00000000E+00
  0.00000000E+00  0.00000000E+00  0.00000000E+00
  0.00000000E+00  0.00000000E+00  0.00000000E+00
  0.00000000E+00  0.00000000E+00  0.00000000E+00
  0.00000000E+00  0.00000000E+00  0.00000000E+00
  0.00000000E+00  0.00000000E+00  0.00000000E+00
  0.00000000E+00  0.00000000E+00  0.00000000E+00
  0.00000000E+00  0.00000000E+00  0.00000000E+00
  0.00000000E+00  0.00000000E+00  0.00000000E+00
  0.00000000E+00  0.00000000E+00  0.00000000E+00
  0.00000000E+00  0.00000000E+00  0.00000000E+00
  0.00000000E+00  0.00000000E+00  0.00000000E+00
  0.00000000E+00  0.00000000E+00  0.00000000E+00
  0.00000000E+00  0.00000000E+00  0.00000000E+00
  0.00000000E+00  0.00000000E+00  0.00000000E+00
  0.00000000E+00  0.00000000E+00  0.00000000E+00
