C  N  Ag                                
   1.00000000000000     
    13.5150395696456833    0.0000000000000000    0.0000000000000000
     0.0000000000000000   11.7397946165727802    0.0000000000000000
     0.0000000000000000    0.0000000000000000   15.0000000000000000
   C    N    Ag
    24    32     1
Direct
  0.0684916807370087  0.4056396189392960  0.1209580791093256
  0.9755593613488480  0.2389542945331573  0.0732637609146834
  0.2296725935520162  0.4049852152542193  0.0865459708763720
  0.8080556560463519  0.5761011137254267  0.1378235313922301
  0.1535193599718261  0.2373828914400052  0.0657306285781327
  0.9028583310784514  0.4020750736661545  0.1153913048313849
  0.5692688181662727  0.3678860300712961  0.0854142715554404
  0.4694327430421507  0.2316840569358216  0.1646989210774593
  0.7265430812766973  0.3877222108071802  0.1340018805142058
  0.3299489134984763  0.5787773321883767  0.0832168116673005
  0.6453262821164524  0.2363666740461541  0.1916745226973794
  0.4051680148182913  0.3865542208710056  0.0965388478412085
  0.8195707334451111  0.9143803111196204  0.1791739088580178
  0.7345031952724361  0.7360553662196420  0.1985273686769729
  0.9745947821471036  0.9076795610968660  0.1223488170525133
  0.8916527056879234  0.7409801469081656  0.1186063681290541
  0.6564876247953559  0.9047740937224551  0.2183241801561250
  0.3059859002999112  0.8925195013352346  0.1815989371297806
  0.2449167159290830  0.7462906776600733  0.0766582591393409
  0.4727000156342184  0.8932514467570503  0.2031400927690373
  0.4087600076099444  0.7367857190386535  0.1364220334497518
  0.1574671557601632  0.9034392986617503  0.1122324302762760
  0.0645282749366597  0.0772424240354068  0.0763202469194009
  0.5531739052023408  0.0811788091932704  0.2199359557429631
  0.9840593106818739  0.4538128724065965  0.1462082167142118
  0.8931903066797692  0.3023561167041788  0.0736241926759483
  0.1555413059740278  0.4589928634287547  0.1273094297126240
  0.1536284850190086  0.1248736749081179  0.0627079777511863
  0.9759414854615606  0.1273563616440624  0.0634039972984354
  0.2335408341503792  0.3007582509068735  0.0514940985209317
  0.0658734294415781  0.2948524713607784  0.0877551164081213
  0.8123027301663523  0.4578129186482768  0.1313929225596011
  0.4870509432243033  0.4150972250176510  0.0519828305665011
  0.3923918280999767  0.3015730170004772  0.1547318564527012
  0.6558081794931192  0.4218256756923275  0.0766854875266439
  0.6361525899890706  0.1409460901098087  0.2371065151047572
  0.4659397166779334  0.1285398948031936  0.1996629353018262
  0.7256133599539174  0.3033820791197456  0.1930964436933375
  0.5637873244669505  0.2713244758904486  0.1370867935034365
  0.3224336182503323  0.4605917517464134  0.0841391339266585
  0.7343920051106698  0.9678000620327689  0.1955251748480049
  0.6585216101427420  0.7917931052435633  0.2348627887258806
  0.9052694157217385  0.9675399340598578  0.1660065709467826
  0.8812144215795682  0.6320689889258039  0.0980074447611746
  0.7313330057371368  0.6224750585589268  0.1850853890582509
  0.9693928405205433  0.8008994163251614  0.0924919337017965
  0.8172652535102291  0.7954371406683853  0.1691855934337581
  0.5600035318505852  0.9596934552563716  0.2225534958550977
  0.2164029863800869  0.9411864853868760  0.1782823897532758
  0.1690827561194840  0.8155412446051010  0.0568227644987683
  0.3836809748150979  0.9352712895060626  0.2255031536188978
  0.4139162756598695  0.6259799437411638  0.1171843547463940
  0.2533834964611738  0.6390590751349992  0.0495250396303706
  0.4885953428738164  0.7949605632592754  0.1600058115527900
  0.3188013445263113  0.7914086688943786  0.1329088649967424
  0.0645718584304229  0.9649090222162905  0.1024157632269741
  0.5748880234507501  0.5926772999765830  0.1429083895738026
 
  0.00000000E+00  0.00000000E+00  0.00000000E+00
  0.00000000E+00  0.00000000E+00  0.00000000E+00
  0.00000000E+00  0.00000000E+00  0.00000000E+00
  0.00000000E+00  0.00000000E+00  0.00000000E+00
  0.00000000E+00  0.00000000E+00  0.00000000E+00
  0.00000000E+00  0.00000000E+00  0.00000000E+00
  0.00000000E+00  0.00000000E+00  0.00000000E+00
  0.00000000E+00  0.00000000E+00  0.00000000E+00
  0.00000000E+00  0.00000000E+00  0.00000000E+00
  0.00000000E+00  0.00000000E+00  0.00000000E+00
  0.00000000E+00  0.00000000E+00  0.00000000E+00
  0.00000000E+00  0.00000000E+00  0.00000000E+00
  0.00000000E+00  0.00000000E+00  0.00000000E+00
  0.00000000E+00  0.00000000E+00  0.00000000E+00
  0.00000000E+00  0.00000000E+00  0.00000000E+00
  0.00000000E+00  0.00000000E+00  0.00000000E+00
  0.00000000E+00  0.00000000E+00  0.00000000E+00
  0.00000000E+00  0.00000000E+00  0.00000000E+00
  0.00000000E+00  0.00000000E+00  0.00000000E+00
  0.00000000E+00  0.00000000E+00  0.00000000E+00
  0.00000000E+00  0.00000000E+00  0.00000000E+00
  0.00000000E+00  0.00000000E+00  0.00000000E+00
  0.00000000E+00  0.00000000E+00  0.00000000E+00
  0.00000000E+00  0.00000000E+00  0.00000000E+00
  0.00000000E+00  0.00000000E+00  0.00000000E+00
  0.00000000E+00  0.00000000E+00  0.00000000E+00
  0.00000000E+00  0.00000000E+00  0.00000000E+00
  0.00000000E+00  0.00000000E+00  0.00000000E+00
  0.00000000E+00  0.00000000E+00  0.00000000E+00
  0.00000000E+00  0.00000000E+00  0.00000000E+00
  0.00000000E+00  0.00000000E+00  0.00000000E+00
  0.00000000E+00  0.00000000E+00  0.00000000E+00
  0.00000000E+00  0.00000000E+00  0.00000000E+00
  0.00000000E+00  0.00000000E+00  0.00000000E+00
  0.00000000E+00  0.00000000E+00  0.00000000E+00
  0.00000000E+00  0.00000000E+00  0.00000000E+00
  0.00000000E+00  0.00000000E+00  0.00000000E+00
  0.00000000E+00  0.00000000E+00  0.00000000E+00
  0.00000000E+00  0.00000000E+00  0.00000000E+00
  0.00000000E+00  0.00000000E+00  0.00000000E+00
  0.00000000E+00  0.00000000E+00  0.00000000E+00
  0.00000000E+00  0.00000000E+00  0.00000000E+00
  0.00000000E+00  0.00000000E+00  0.00000000E+00
  0.00000000E+00  0.00000000E+00  0.00000000E+00
  0.00000000E+00  0.00000000E+00  0.00000000E+00
  0.00000000E+00  0.00000000E+00  0.00000000E+00
  0.00000000E+00  0.00000000E+00  0.00000000E+00
  0.00000000E+00  0.00000000E+00  0.00000000E+00
  0.00000000E+00  0.00000000E+00  0.00000000E+00
  0.00000000E+00  0.00000000E+00  0.00000000E+00
  0.00000000E+00  0.00000000E+00  0.00000000E+00
  0.00000000E+00  0.00000000E+00  0.00000000E+00
  0.00000000E+00  0.00000000E+00  0.00000000E+00
  0.00000000E+00  0.00000000E+00  0.00000000E+00
  0.00000000E+00  0.00000000E+00  0.00000000E+00
  0.00000000E+00  0.00000000E+00  0.00000000E+00
  0.00000000E+00  0.00000000E+00  0.00000000E+00
