C  N  Ag                                
   1.00000000000000     
    13.5669123484651717    0.0000000000000000    0.0000000000000000
     0.0000000000000000   11.7974233222220928    0.0000000000000000
     0.0000000000000000    0.0000000000000000   15.0000000000000000
   C    N    Ag
    24    32     1
Direct
  0.0679903385143022  0.4056439719515876  0.1264567236890397
  0.9758744746975793  0.2394454156374383  0.0769060000933175
  0.2299832676731770  0.4022497443480029  0.0978344117490201
  0.8060328821148031  0.5769246912664140  0.1302560249737808
  0.1527119684554149  0.2374098619515315  0.0698997979563552
  0.9029303150965792  0.4038524302886994  0.1135924698386319
  0.5687451026441213  0.3708361192992149  0.0809483622884997
  0.4743533660362447  0.2303437142563842  0.1598451658948192
  0.7264976928900623  0.3904288341604663  0.1260904672457867
  0.3272366767293822  0.5774747063340765  0.0944937467499071
  0.6492679535542305  0.2359288939074804  0.1809306175739512
  0.4059128273518040  0.3881680424332071  0.1024576155442718
  0.8195330137651549  0.9099543363958592  0.1790919875066213
  0.7315917421636964  0.7339593465860850  0.1917428330876519
  0.9736856057208167  0.9049196817537143  0.1209831507168907
  0.8872815115622686  0.7417557050748010  0.1089693334967704
  0.6573447468827834  0.9013949985740064  0.2194655295934743
  0.3071547096987711  0.8977395009600293  0.1832774933096058
  0.2410004487976731  0.7424654939026557  0.0899503480342073
  0.4739976257131157  0.8951325984290984  0.2036812872162780
  0.4067000428766524  0.7367316565182881  0.1436902234945916
  0.1569568298363473  0.9044695206064316  0.1158855339379781
  0.0635496012631270  0.0771227462074623  0.0788454314624508
  0.5594769060439586  0.0799690089319643  0.2123362625627787
  0.9830381167755450  0.4556177164792233  0.1465047042431790
  0.8942876181028218  0.3031750892263368  0.0740973207279007
  0.1553781242358057  0.4554949587286485  0.1383515024922066
  0.1516294333287444  0.1260951265329324  0.0625403729820838
  0.9753641071637689  0.1279663336193944  0.0691509828205082
  0.2339364427400824  0.3006880637440911  0.0598570884484640
  0.0656637921575589  0.2950107148794841  0.0920620165130650
  0.8119584454385147  0.4595294176180813  0.1246190561832070
  0.4848625840131998  0.4199674762031700  0.0544524492544101
  0.3975596285743157  0.3000491523145640  0.1579076092830853
  0.6542635467348489  0.4260370139736073  0.0710223295028240
  0.6428762145725951  0.1401306406269192  0.2254861855062833
  0.4727049881085827  0.1268324701716852  0.1929673362737389
  0.7275175399993529  0.3048493241888117  0.1831855324557996
  0.5666957640638257  0.2706268108774074  0.1280936191299409
  0.3220996686848089  0.4595531079067355  0.0962534910789888
  0.7373390646479127  0.9631204200704672  0.2022502384218224
  0.6582500977474181  0.7882358421399311  0.2327901024074370
  0.9072518257236182  0.9604319181935325  0.1703895771797167
  0.8777865004878946  0.6326394444389162  0.0890822811716352
  0.7291647114271521  0.6210658282345325  0.1781651339401943
  0.9659273808838021  0.8016128955949552  0.0852232559451376
  0.8119707569905169  0.7945272812639869  0.1582050771558057
  0.5633715838360418  0.9586987983944256  0.2216187262587457
  0.2201893003598543  0.9504352556464274  0.1753916236311925
  0.1651108082729326  0.8094399500692800  0.0689366214466357
  0.3868400611256952  0.9413615925212417  0.2243885070639499
  0.4116914410971405  0.6270987933382322  0.1238046206239959
  0.2488126097169330  0.6355626034802975  0.0638482865535395
  0.4875813217130766  0.7959920683637545  0.1618304782555834
  0.3159598463506793  0.7899647347661819  0.1438916576773501
  0.0644746787634053  0.9641109360570478  0.1035587120785544
  0.5747887890729624  0.6012597819663538  0.1186526852763787
 
  0.00000000E+00  0.00000000E+00  0.00000000E+00
  0.00000000E+00  0.00000000E+00  0.00000000E+00
  0.00000000E+00  0.00000000E+00  0.00000000E+00
  0.00000000E+00  0.00000000E+00  0.00000000E+00
  0.00000000E+00  0.00000000E+00  0.00000000E+00
  0.00000000E+00  0.00000000E+00  0.00000000E+00
  0.00000000E+00  0.00000000E+00  0.00000000E+00
  0.00000000E+00  0.00000000E+00  0.00000000E+00
  0.00000000E+00  0.00000000E+00  0.00000000E+00
  0.00000000E+00  0.00000000E+00  0.00000000E+00
  0.00000000E+00  0.00000000E+00  0.00000000E+00
  0.00000000E+00  0.00000000E+00  0.00000000E+00
  0.00000000E+00  0.00000000E+00  0.00000000E+00
  0.00000000E+00  0.00000000E+00  0.00000000E+00
  0.00000000E+00  0.00000000E+00  0.00000000E+00
  0.00000000E+00  0.00000000E+00  0.00000000E+00
  0.00000000E+00  0.00000000E+00  0.00000000E+00
  0.00000000E+00  0.00000000E+00  0.00000000E+00
  0.00000000E+00  0.00000000E+00  0.00000000E+00
  0.00000000E+00  0.00000000E+00  0.00000000E+00
  0.00000000E+00  0.00000000E+00  0.00000000E+00
  0.00000000E+00  0.00000000E+00  0.00000000E+00
  0.00000000E+00  0.00000000E+00  0.00000000E+00
  0.00000000E+00  0.00000000E+00  0.00000000E+00
  0.00000000E+00  0.00000000E+00  0.00000000E+00
  0.00000000E+00  0.00000000E+00  0.00000000E+00
  0.00000000E+00  0.00000000E+00  0.00000000E+00
  0.00000000E+00  0.00000000E+00  0.00000000E+00
  0.00000000E+00  0.00000000E+00  0.00000000E+00
  0.00000000E+00  0.00000000E+00  0.00000000E+00
  0.00000000E+00  0.00000000E+00  0.00000000E+00
  0.00000000E+00  0.00000000E+00  0.00000000E+00
  0.00000000E+00  0.00000000E+00  0.00000000E+00
  0.00000000E+00  0.00000000E+00  0.00000000E+00
  0.00000000E+00  0.00000000E+00  0.00000000E+00
  0.00000000E+00  0.00000000E+00  0.00000000E+00
  0.00000000E+00  0.00000000E+00  0.00000000E+00
  0.00000000E+00  0.00000000E+00  0.00000000E+00
  0.00000000E+00  0.00000000E+00  0.00000000E+00
  0.00000000E+00  0.00000000E+00  0.00000000E+00
  0.00000000E+00  0.00000000E+00  0.00000000E+00
  0.00000000E+00  0.00000000E+00  0.00000000E+00
  0.00000000E+00  0.00000000E+00  0.00000000E+00
  0.00000000E+00  0.00000000E+00  0.00000000E+00
  0.00000000E+00  0.00000000E+00  0.00000000E+00
  0.00000000E+00  0.00000000E+00  0.00000000E+00
  0.00000000E+00  0.00000000E+00  0.00000000E+00
  0.00000000E+00  0.00000000E+00  0.00000000E+00
  0.00000000E+00  0.00000000E+00  0.00000000E+00
  0.00000000E+00  0.00000000E+00  0.00000000E+00
  0.00000000E+00  0.00000000E+00  0.00000000E+00
  0.00000000E+00  0.00000000E+00  0.00000000E+00
  0.00000000E+00  0.00000000E+00  0.00000000E+00
  0.00000000E+00  0.00000000E+00  0.00000000E+00
  0.00000000E+00  0.00000000E+00  0.00000000E+00
  0.00000000E+00  0.00000000E+00  0.00000000E+00
  0.00000000E+00  0.00000000E+00  0.00000000E+00
