C  N  Cu                                
   1.00000000000000     
    13.7180000669074804    0.0000000000000000    0.0000000000000000
     0.0000000000000000   10.9129329202878509    0.0000000000000000
     0.0000000000000000    0.0000000000000000   15.0000000000000000
   C    N    Cu
    24    32     3
Direct
  0.0702990418717957  0.3827731440938103  0.2316265748986867
  0.9799835870798201  0.2148895695090980  0.1676334539936911
  0.2276544653081340  0.3956824277165391  0.1958927968646073
  0.8265157762401505  0.5763719571092077  0.1965381096323555
  0.1473091896488293  0.2508178850101770  0.1206578500639191
  0.9071829688755323  0.3788631798048571  0.2304233649443246
  0.5677804700816017  0.3925090248989342  0.2396362247725131
  0.4773018383512611  0.2239437078190445  0.1772867600034290
  0.7299047495994364  0.3982571220390648  0.2105084157571570
  0.3089507947411063  0.5842034874162458  0.1857598834988173
  0.6468411663011157  0.2564999459840615  0.1333903534960087
  0.4015063153078948  0.3928091168645793  0.2280026976248115
  0.8196179346609826  0.8847580311949912  0.0494646401979213
  0.7352470635977942  0.7246262306229616  0.1286468490067590
  0.9810318348962854  0.8918903528881432  0.0704623872359038
  0.0668144299121151  0.0787875772259239  0.0838780834151594
  0.9079940660694893  0.7425240526339282  0.1484322614978555
  0.6562918085619743  0.8913031537329900  0.0698852140805690
  0.3189039855647083  0.8957137062999559  0.0454803488839226
  0.2268181657781810  0.7204091921075459  0.0980689423680788
  0.4761399440485196  0.9042608695346465  0.0857229749310018
  0.5666720986481900  0.0844245319527568  0.0996167180345796
  0.3852895858237056  0.7657695021275817  0.1616072717179873
  0.1558215132346027  0.8886999784468648  0.0408959735870927
  0.9882090645808939  0.4319764631522484  0.2614172636836716
  0.8988272380191065  0.2632880375285737  0.2009766343451335
  0.1580958665958235  0.4264606006567925  0.2532690644763722
  0.1449292432304300  0.1498669394495656  0.0712601125971364
  0.9846711018961842  0.1053351283746479  0.1286455482728709
  0.2270529246546841  0.3208729993588715  0.1263277887491028
  0.0659412443564605  0.2847589637248565  0.1713317462735245
  0.8229798675563038  0.4538863771877513  0.2270970559895691
  0.4832760507849123  0.4473683336022901  0.2609832695741057
  0.3956741611493682  0.2737710657186881  0.2067374413776846
  0.6564555544993447  0.4326525117594632  0.2660900932688149
  0.6455057992825285  0.1536552211398425  0.0865816027747705
  0.4829216727369531  0.1137134918608838  0.1407302246661969
  0.7264553877174771  0.3255916898875388  0.1399529440109978
  0.5643384234447365  0.2930354291368192  0.1819721966787471
  0.3171142861301413  0.4615935977638034  0.2130187467815539
  0.7345598599745699  0.9376345888081939  0.0295034927083039
  0.6508252850273468  0.7823593127845720  0.1129216914451064
  0.9052439924933732  0.9268958108173666  0.0209107512246149
  0.9096211677216596  0.6391880315128783  0.1954957224764664
  0.7382821233163498  0.6169172578749241  0.1699974233647032
  0.9865899164113505  0.8117916892400949  0.1371083795730228
  0.8213384204164497  0.7821018455116325  0.1067874111707165
  0.5694296072791289  0.9609593253596754  0.0727042432060178
  0.2381294152038642  0.9456862579234686  0.0151597267636176
  0.1493781961247826  0.7673038561807433  0.0591420125065189
  0.4094205823751654  0.9336988942565531  0.0260730515673108
  0.3787527414837450  0.6647171550079654  0.2124589400661909
  0.2337972136539807  0.6075026737941370  0.1321476351513735
  0.4660904687406359  0.8345507676147598  0.1599219545768330
  0.3102069184620000  0.7964304699969674  0.1058166293862720
  0.0699604150177138  0.9568213398831216  0.0518055785597641
  0.5785583494879430  0.7799371124445562  0.2385641634100915
  0.6526220322509637  0.6126117025257418  0.3119808466970764
  0.4840334935947732  0.6233667018211241  0.2987681036052527
 
  0.00000000E+00  0.00000000E+00  0.00000000E+00
  0.00000000E+00  0.00000000E+00  0.00000000E+00
  0.00000000E+00  0.00000000E+00  0.00000000E+00
  0.00000000E+00  0.00000000E+00  0.00000000E+00
  0.00000000E+00  0.00000000E+00  0.00000000E+00
  0.00000000E+00  0.00000000E+00  0.00000000E+00
  0.00000000E+00  0.00000000E+00  0.00000000E+00
  0.00000000E+00  0.00000000E+00  0.00000000E+00
  0.00000000E+00  0.00000000E+00  0.00000000E+00
  0.00000000E+00  0.00000000E+00  0.00000000E+00
  0.00000000E+00  0.00000000E+00  0.00000000E+00
  0.00000000E+00  0.00000000E+00  0.00000000E+00
  0.00000000E+00  0.00000000E+00  0.00000000E+00
  0.00000000E+00  0.00000000E+00  0.00000000E+00
  0.00000000E+00  0.00000000E+00  0.00000000E+00
  0.00000000E+00  0.00000000E+00  0.00000000E+00
  0.00000000E+00  0.00000000E+00  0.00000000E+00
  0.00000000E+00  0.00000000E+00  0.00000000E+00
  0.00000000E+00  0.00000000E+00  0.00000000E+00
  0.00000000E+00  0.00000000E+00  0.00000000E+00
  0.00000000E+00  0.00000000E+00  0.00000000E+00
  0.00000000E+00  0.00000000E+00  0.00000000E+00
  0.00000000E+00  0.00000000E+00  0.00000000E+00
  0.00000000E+00  0.00000000E+00  0.00000000E+00
  0.00000000E+00  0.00000000E+00  0.00000000E+00
  0.00000000E+00  0.00000000E+00  0.00000000E+00
  0.00000000E+00  0.00000000E+00  0.00000000E+00
  0.00000000E+00  0.00000000E+00  0.00000000E+00
  0.00000000E+00  0.00000000E+00  0.00000000E+00
  0.00000000E+00  0.00000000E+00  0.00000000E+00
  0.00000000E+00  0.00000000E+00  0.00000000E+00
  0.00000000E+00  0.00000000E+00  0.00000000E+00
  0.00000000E+00  0.00000000E+00  0.00000000E+00
  0.00000000E+00  0.00000000E+00  0.00000000E+00
  0.00000000E+00  0.00000000E+00  0.00000000E+00
  0.00000000E+00  0.00000000E+00  0.00000000E+00
  0.00000000E+00  0.00000000E+00  0.00000000E+00
  0.00000000E+00  0.00000000E+00  0.00000000E+00
  0.00000000E+00  0.00000000E+00  0.00000000E+00
  0.00000000E+00  0.00000000E+00  0.00000000E+00
  0.00000000E+00  0.00000000E+00  0.00000000E+00
  0.00000000E+00  0.00000000E+00  0.00000000E+00
  0.00000000E+00  0.00000000E+00  0.00000000E+00
  0.00000000E+00  0.00000000E+00  0.00000000E+00
  0.00000000E+00  0.00000000E+00  0.00000000E+00
  0.00000000E+00  0.00000000E+00  0.00000000E+00
  0.00000000E+00  0.00000000E+00  0.00000000E+00
  0.00000000E+00  0.00000000E+00  0.00000000E+00
  0.00000000E+00  0.00000000E+00  0.00000000E+00
  0.00000000E+00  0.00000000E+00  0.00000000E+00
  0.00000000E+00  0.00000000E+00  0.00000000E+00
  0.00000000E+00  0.00000000E+00  0.00000000E+00
  0.00000000E+00  0.00000000E+00  0.00000000E+00
  0.00000000E+00  0.00000000E+00  0.00000000E+00
  0.00000000E+00  0.00000000E+00  0.00000000E+00
  0.00000000E+00  0.00000000E+00  0.00000000E+00
  0.00000000E+00  0.00000000E+00  0.00000000E+00
  0.00000000E+00  0.00000000E+00  0.00000000E+00
  0.00000000E+00  0.00000000E+00  0.00000000E+00
