C  N  Au Ag Pd                          
   1.00000000000000     
    13.7034996271039606    0.0000000000000000    0.0000000000000000
     0.0000000000000000   10.8000862116112604    0.0000000000000000
     0.0000000000000000    0.0000000000000000   15.0000000000000000
   C    N    Au   Ag   Pd
    24    32     1     1     1
Direct
  0.0710696372114928  0.3872982751695545  0.2309168469234099
  0.9803638419154225  0.2189495294275960  0.1657309551519628
  0.2301998794929542  0.3946277296337790  0.2004073580018006
  0.8184850849854928  0.5815272993196078  0.1889527075110372
  0.1494475793262298  0.2504704101459056  0.1232115134528502
  0.9074503871160644  0.3864025073981752  0.2257536342579488
  0.5706388376890982  0.3918121041377476  0.2334664315873243
  0.4791141324667592  0.2210552097935185  0.1748576573004142
  0.7309280716621316  0.3961623607782393  0.2039071178797447
  0.3123586046326333  0.5836935097446609  0.1878267780913553
  0.6462616794435612  0.2576865290977216  0.1243330764516551
  0.4058302217151983  0.3923334978089166  0.2282501197457087
  0.8166242434674628  0.8895505377222701  0.0427868507630498
  0.7278791505336623  0.7216212478606251  0.1104980995316678
  0.9767964606025034  0.8965696266328772  0.0687774030883301
  0.0669956291275351  0.0802438865850863  0.0828160372737192
  0.8980412116285240  0.7537573596809574  0.1489340101030488
  0.6528440813372687  0.8892352096246433  0.0522991333869369
  0.3171614462821154  0.8905279688800843  0.0395042518141856
  0.2261939919631726  0.7204176768700098  0.1028038653666955
  0.4753318956217564  0.9012537364164548  0.0750922594744942
  0.5654960050685172  0.0841565475771551  0.0900544789643478
  0.3916070441337210  0.7611703873106318  0.1524444263253461
  0.1533284602291985  0.8866721444048693  0.0417866812571018
  0.9882058617349319  0.4408134105063618  0.2562516727064025
  0.8991191937312455  0.2683676076958754  0.1983790549641681
  0.1589098407734657  0.4280003035806798  0.2556866244030267
  0.1469601893440547  0.1490326952556174  0.0730874015370261
  0.9840582751536301  0.1088960218024530  0.1257666189861473
  0.2302001195388730  0.3184385245809576  0.1311380290920992
  0.0670259195733968  0.2872209855599915  0.1714692554985087
  0.8213671042862524  0.4578877921270290  0.2207177399590054
  0.4883663302351766  0.4510515139595710  0.2535663055826076
  0.3998122484837986  0.2693958598932476  0.2115742120691406
  0.6602738673455348  0.4245716022333874  0.2623350954298042
  0.6435612920347485  0.1551660560404393  0.0756685135129660
  0.4837581572344336  0.1104077696707802  0.1357654917634006
  0.7262374482351731  0.3275429211909049  0.1305718520597295
  0.5651836949484080  0.2922066626882034  0.1747468923502447
  0.3197715169650595  0.4603406050909483  0.2158629848006813
  0.7331083721747153  0.9430884414792631  0.0197385850309955
  0.6455739964344780  0.7709789641854982  0.0802939567242519
  0.9040495869391749  0.9286721016073531  0.0148389724786339
  0.8981153482337220  0.6509661620479309  0.1978191751998866
  0.7334487082614020  0.6108442034103471  0.1498548249994830
  0.9778973119496118  0.8229414784205182  0.1396158205724644
  0.8143642249220140  0.7897215877002546  0.1025329425956481
  0.5673619964357317  0.9608486407484383  0.0587730912049090
  0.2345367415934532  0.9416903212477945  0.0119671757965728
  0.1458799740904073  0.7674664405306540  0.0672481082283618
  0.4060916338548395  0.9311037945536864  0.0168367235732770
  0.3878318560194164  0.6601875301431974  0.2043872583534986
  0.2311822880801410  0.6101336856387435  0.1425076642608483
  0.4716095302545164  0.8298668856379811  0.1473335971067273
  0.3119544222323204  0.7916857811055314  0.1001776979250299
  0.0678093921601357  0.9578936124656585  0.0496498581649500
  0.5867025012286440  0.7792920188652703  0.4223878359444656
  0.6691576786827244  0.5713345430904486  0.3727446819356022
  0.4972266790562606  0.6338375739189153  0.3064702329719579
 
  0.00000000E+00  0.00000000E+00  0.00000000E+00
  0.00000000E+00  0.00000000E+00  0.00000000E+00
  0.00000000E+00  0.00000000E+00  0.00000000E+00
  0.00000000E+00  0.00000000E+00  0.00000000E+00
  0.00000000E+00  0.00000000E+00  0.00000000E+00
  0.00000000E+00  0.00000000E+00  0.00000000E+00
  0.00000000E+00  0.00000000E+00  0.00000000E+00
  0.00000000E+00  0.00000000E+00  0.00000000E+00
  0.00000000E+00  0.00000000E+00  0.00000000E+00
  0.00000000E+00  0.00000000E+00  0.00000000E+00
  0.00000000E+00  0.00000000E+00  0.00000000E+00
  0.00000000E+00  0.00000000E+00  0.00000000E+00
  0.00000000E+00  0.00000000E+00  0.00000000E+00
  0.00000000E+00  0.00000000E+00  0.00000000E+00
  0.00000000E+00  0.00000000E+00  0.00000000E+00
  0.00000000E+00  0.00000000E+00  0.00000000E+00
  0.00000000E+00  0.00000000E+00  0.00000000E+00
  0.00000000E+00  0.00000000E+00  0.00000000E+00
  0.00000000E+00  0.00000000E+00  0.00000000E+00
  0.00000000E+00  0.00000000E+00  0.00000000E+00
  0.00000000E+00  0.00000000E+00  0.00000000E+00
  0.00000000E+00  0.00000000E+00  0.00000000E+00
  0.00000000E+00  0.00000000E+00  0.00000000E+00
  0.00000000E+00  0.00000000E+00  0.00000000E+00
  0.00000000E+00  0.00000000E+00  0.00000000E+00
  0.00000000E+00  0.00000000E+00  0.00000000E+00
  0.00000000E+00  0.00000000E+00  0.00000000E+00
  0.00000000E+00  0.00000000E+00  0.00000000E+00
  0.00000000E+00  0.00000000E+00  0.00000000E+00
  0.00000000E+00  0.00000000E+00  0.00000000E+00
  0.00000000E+00  0.00000000E+00  0.00000000E+00
  0.00000000E+00  0.00000000E+00  0.00000000E+00
  0.00000000E+00  0.00000000E+00  0.00000000E+00
  0.00000000E+00  0.00000000E+00  0.00000000E+00
  0.00000000E+00  0.00000000E+00  0.00000000E+00
  0.00000000E+00  0.00000000E+00  0.00000000E+00
  0.00000000E+00  0.00000000E+00  0.00000000E+00
  0.00000000E+00  0.00000000E+00  0.00000000E+00
  0.00000000E+00  0.00000000E+00  0.00000000E+00
  0.00000000E+00  0.00000000E+00  0.00000000E+00
  0.00000000E+00  0.00000000E+00  0.00000000E+00
  0.00000000E+00  0.00000000E+00  0.00000000E+00
  0.00000000E+00  0.00000000E+00  0.00000000E+00
  0.00000000E+00  0.00000000E+00  0.00000000E+00
  0.00000000E+00  0.00000000E+00  0.00000000E+00
  0.00000000E+00  0.00000000E+00  0.00000000E+00
  0.00000000E+00  0.00000000E+00  0.00000000E+00
  0.00000000E+00  0.00000000E+00  0.00000000E+00
  0.00000000E+00  0.00000000E+00  0.00000000E+00
  0.00000000E+00  0.00000000E+00  0.00000000E+00
  0.00000000E+00  0.00000000E+00  0.00000000E+00
  0.00000000E+00  0.00000000E+00  0.00000000E+00
  0.00000000E+00  0.00000000E+00  0.00000000E+00
  0.00000000E+00  0.00000000E+00  0.00000000E+00
  0.00000000E+00  0.00000000E+00  0.00000000E+00
  0.00000000E+00  0.00000000E+00  0.00000000E+00
  0.00000000E+00  0.00000000E+00  0.00000000E+00
  0.00000000E+00  0.00000000E+00  0.00000000E+00
  0.00000000E+00  0.00000000E+00  0.00000000E+00
