C  N  Au                                
   1.00000000000000     
    12.7494189934364499    0.0000000000000000    0.0000000000000000
     0.0000000000000000   11.6110832688062526    0.0000000000000000
     0.0000000000000000    0.0000000000000000   15.0000000000000000
   C    N    Au
    24    32     2
Direct
  0.0416789066541889  0.3952790556401056  0.1216178250965144
  0.9937851383667805  0.2413951876418093  0.2266380621155590
  0.2071248527568025  0.3934923805966571  0.0689213610673611
  0.7976098283821667  0.5783767448131445  0.2076402197307136
  0.1578131713662472  0.2350951298665434  0.1458324504996154
  0.8934829221692531  0.3981733671722929  0.2047980488690004
  0.5394026218046847  0.3948555536278702  0.1331299609704489
  0.4936404608947807  0.2418182339090942  0.0282862726554666
  0.7071338437064271  0.3942032836552326  0.1880548469384276
  0.2955337947516423  0.5780659494770271  0.0427473988935923
  0.6550224835048073  0.2335982693361340  0.1133683873230449
  0.3926795309341437  0.3989924033698696  0.0486376135208805
  0.8437907405038030  0.8972708474437201  0.1193158308017973
  0.7325299921794585  0.7318832730157064  0.1343551409001011
  0.9910818463309283  0.8998395784807320  0.2041536953306691
  0.0899041303537829  0.0781984194029459  0.2128353506823136
  0.8899207535812930  0.7432084724832443  0.2246796662747305
  0.6794265071983344  0.8931675635468457  0.0637964958742160
  0.3435679025319380  0.8959442516277734  0.1324598719464388
  0.2291222070018258  0.7336608602854434  0.1123235013857842
  0.4911239259454193  0.8990229880395858  0.0482940578258967
  0.5890342010892585  0.0778773761906510  0.0432833627129738
  0.3904762364319622  0.7419274512678720  0.0274464824484181
  0.1785468737967461  0.8937301519726227  0.1863625381656731
  0.9493059331099766  0.4452970607725634  0.1389567955187812
  0.9112441247200281  0.3044503731370096  0.2532710892785784
  0.1108790737389231  0.4394666297487626  0.0645679775203442
  0.1676515857582267  0.1253377261730105  0.1667812390348493
  0.0089216300603303  0.1324331175141127  0.2521562988037553
  0.2336691576029653  0.2927735451916543  0.1047605210122158
  0.0644849837158589  0.2919034104277242  0.1660305469065088
  0.7939117929092236  0.4566789519211921  0.2186375451748905
  0.4492150083394845  0.4464706797139471  0.1144600126422181
  0.4116380391980319  0.3050287786862672  0.0008097953500814
  0.6082776929371992  0.4388559146198651  0.1928526290080031
  0.6641148827027850  0.1234262904257773  0.0934280772732205
  0.5102471512550539  0.1337130439305247  0.0017549365968735
  0.7303094215533360  0.2921063437940599  0.1538588358924279
  0.5627952913956338  0.2915002274790856  0.0909724415658993
  0.2935010028329106  0.4562395982677789  0.0349016740322892
  0.7744785198118909  0.9427989665531520  0.0629735315962544
  0.6569325646921972  0.7871518031957828  0.0916118629820825
  0.9358640761232677  0.9471437643899236  0.1380214706909472
  0.8736399104157053  0.6346061662231806  0.2511968183284852
  0.7259324360723572  0.6203605118366428  0.1523709551913480
  0.9713736742376926  0.8066038184404096  0.2528890845068377
  0.8215157945323502  0.7920063924163723  0.1614211421321050
  0.5911662701537256  0.9566305163553759  0.0345515767032959
  0.2743225161152201  0.9411168024257824  0.1887619863903414
  0.1535003115758951  0.7904299875065686  0.1539941866140507
  0.4356146392351374  0.9463698198007061  0.1140579676329350
  0.3746744469377336  0.6329594901102631  0.0014106011510609
  0.2202190780563379  0.6231323511358602  0.0924372332302428
  0.4722628441575972  0.8053722394409619 -0.0003181424577535
  0.3209783428606573  0.7916024481386684  0.0892538042973706
  0.0913128659133601  0.9567189985657176  0.2182437995858886
  0.4798674139197341  0.7228071543651804  0.3805096410235070
  0.5509673895407105  0.5711218891118975  0.2787636227604774
 
  0.00000000E+00  0.00000000E+00  0.00000000E+00
  0.00000000E+00  0.00000000E+00  0.00000000E+00
  0.00000000E+00  0.00000000E+00  0.00000000E+00
  0.00000000E+00  0.00000000E+00  0.00000000E+00
  0.00000000E+00  0.00000000E+00  0.00000000E+00
  0.00000000E+00  0.00000000E+00  0.00000000E+00
  0.00000000E+00  0.00000000E+00  0.00000000E+00
  0.00000000E+00  0.00000000E+00  0.00000000E+00
  0.00000000E+00  0.00000000E+00  0.00000000E+00
  0.00000000E+00  0.00000000E+00  0.00000000E+00
  0.00000000E+00  0.00000000E+00  0.00000000E+00
  0.00000000E+00  0.00000000E+00  0.00000000E+00
  0.00000000E+00  0.00000000E+00  0.00000000E+00
  0.00000000E+00  0.00000000E+00  0.00000000E+00
  0.00000000E+00  0.00000000E+00  0.00000000E+00
  0.00000000E+00  0.00000000E+00  0.00000000E+00
  0.00000000E+00  0.00000000E+00  0.00000000E+00
  0.00000000E+00  0.00000000E+00  0.00000000E+00
  0.00000000E+00  0.00000000E+00  0.00000000E+00
  0.00000000E+00  0.00000000E+00  0.00000000E+00
  0.00000000E+00  0.00000000E+00  0.00000000E+00
  0.00000000E+00  0.00000000E+00  0.00000000E+00
  0.00000000E+00  0.00000000E+00  0.00000000E+00
  0.00000000E+00  0.00000000E+00  0.00000000E+00
  0.00000000E+00  0.00000000E+00  0.00000000E+00
  0.00000000E+00  0.00000000E+00  0.00000000E+00
  0.00000000E+00  0.00000000E+00  0.00000000E+00
  0.00000000E+00  0.00000000E+00  0.00000000E+00
  0.00000000E+00  0.00000000E+00  0.00000000E+00
  0.00000000E+00  0.00000000E+00  0.00000000E+00
  0.00000000E+00  0.00000000E+00  0.00000000E+00
  0.00000000E+00  0.00000000E+00  0.00000000E+00
  0.00000000E+00  0.00000000E+00  0.00000000E+00
  0.00000000E+00  0.00000000E+00  0.00000000E+00
  0.00000000E+00  0.00000000E+00  0.00000000E+00
  0.00000000E+00  0.00000000E+00  0.00000000E+00
  0.00000000E+00  0.00000000E+00  0.00000000E+00
  0.00000000E+00  0.00000000E+00  0.00000000E+00
  0.00000000E+00  0.00000000E+00  0.00000000E+00
  0.00000000E+00  0.00000000E+00  0.00000000E+00
  0.00000000E+00  0.00000000E+00  0.00000000E+00
  0.00000000E+00  0.00000000E+00  0.00000000E+00
  0.00000000E+00  0.00000000E+00  0.00000000E+00
  0.00000000E+00  0.00000000E+00  0.00000000E+00
  0.00000000E+00  0.00000000E+00  0.00000000E+00
  0.00000000E+00  0.00000000E+00  0.00000000E+00
  0.00000000E+00  0.00000000E+00  0.00000000E+00
  0.00000000E+00  0.00000000E+00  0.00000000E+00
  0.00000000E+00  0.00000000E+00  0.00000000E+00
  0.00000000E+00  0.00000000E+00  0.00000000E+00
  0.00000000E+00  0.00000000E+00  0.00000000E+00
  0.00000000E+00  0.00000000E+00  0.00000000E+00
  0.00000000E+00  0.00000000E+00  0.00000000E+00
  0.00000000E+00  0.00000000E+00  0.00000000E+00
  0.00000000E+00  0.00000000E+00  0.00000000E+00
  0.00000000E+00  0.00000000E+00  0.00000000E+00
  0.00000000E+00  0.00000000E+00  0.00000000E+00
  0.00000000E+00  0.00000000E+00  0.00000000E+00
